 vasp.6.2.0 18Jan21 (build Jan 05 2022 15:41:44) complex

 executed on             LinuxIFC date 2025.05.07  19:12:48

 INCAR:
   SYSTEM = routine with relax: pwdword
   ICHARG = 2
   NPAR = 6
   KPAR = 2
   NCORE = 2
   ADDGRID = T
   PREC = Acc
   ENCUT = 600
   METAGGA = R2SCAN
   LASPH = .TRUE.
   LMIXTAU = .FALSE.
   ALGO = A
   EDIFF = 1E-9
   NELM = 100
   NELMIN = 6
   IALGO = 38
   LREAL = F
   NSW = 0
   ISIF = -1
   ISMEAR = 0
   SIGMA = 0.02
   SYMPREC = 1E-4

 POTCAR:    PAW_PBE B 06Sep2000
 POTCAR:    PAW_PBE Mo_sv 02Feb2006
 POTCAR:    PAW_PBE Si 05Jan2001
|           W    W    AA    RRRRR   N    N  II  N    N   GGGG   !!!           |
|           W    W   A  A   R    R  NN   N  II  NN   N  G    G  !!!           |
|           W    W  A    A  R    R  N N  N  II  N N  N  G       !!!           |
|           W WW W  AAAAAA  RRRRR   N  N N  II  N  N N  G  GGG   !            |
|           WW  WW  A    A  R   R   N   NN  II  N   NN  G    G                |
|           W    W  A    A  R    R  N    N  II  N    N   GGGG   !!!           |
|     For optimal performance we recommend to set                             |
|       NCORE = 2 up to number-of-cores-per-socket                            |
|     This setting can greatly improve the performance of VASP for DFT.       |
|     The default, NCORE=1 might be grossly inefficient on modern             |
|     multi-core architectures or massively parallel machines. Do your        |
|     Unfortunately you need to use the default for GW and RPA                |
|     calculations (for HF NCORE is supported but not extensively tested      |
|     yet).                                                                   |

 POTCAR:    PAW_PBE B 06Sep2000
   VRHFIN =B: s2p1

   TITEL  = PAW_PBE B 06Sep2000
   POMASS =   10.811; ZVAL   =    3.000    mass and valenz
   ENMAX  =  318.614; ENMIN  =  238.960 eV

 POTCAR:    PAW_PBE Mo_sv 02Feb2006
   VRHFIN =Mo: 4p5s4d

   TITEL  = PAW_PBE Mo_sv 02Feb2006
   POMASS =   95.940; ZVAL   =   14.000    mass and valenz
   ENMAX  =  242.676; ENMIN  =  182.007 eV

 POTCAR:    PAW_PBE Si 05Jan2001
   VRHFIN =Si: s2p2

   TITEL  = PAW_PBE Si 05Jan2001
   POMASS =   28.085; ZVAL   =    4.000    mass and valenz
   ENMAX  =  245.345; ENMIN  =  184.009 eV

  PAW_PBE B 06Sep2000                   :
  PAW_PBE Mo_sv 02Feb2006               :
  PAW_PBE Si 05Jan2001                  :

 POSCAR: EA178
  positions in direct lattice

 METAGGA = R2SCA    LMAXTAU =  6    LMIXTAU =  F

 ion  position               nearest neighbor table
   1  0.250  0.250  0.000-   5 1.92   7 1.92   6 1.92   3 1.92   8 2.09   4 2.09
   2  0.750  0.750  0.000-   5 1.92   7 1.92   3 1.92   6 1.92   8 2.09   4 2.09
   3  0.000  0.000  0.500-   1 1.92   2 1.92   7 2.71   7 2.71   5 2.71   5 2.71   8 2.83   8 2.83
                            10 2.83   9 2.83   9 2.83  10 2.83   4 2.83   4 2.83
   4  0.500  0.500  0.000-   1 2.09   2 2.09  10 2.71  10 2.71   9 2.71   9 2.71   6 2.83   6 2.83
                             7 2.83   7 2.83   5 2.83   5 2.83   3 2.83   3 2.83
   5  0.000  0.500  0.000-   1 1.92   2 1.92   6 2.71   6 2.71   3 2.71   3 2.71  10 2.83  10 2.83
                             8 2.83   4 2.83   4 2.83   8 2.83   9 2.83   9 2.83
   6  0.500  0.500  0.500-   2 1.92   1 1.92   5 2.71   5 2.71   7 2.71   7 2.71   4 2.83   4 2.83
                             9 2.83   9 2.83  10 2.83  10 2.83   8 2.83   8 2.83
   7  0.500  0.000  0.000-   1 1.92   2 1.92   3 2.71   3 2.71   6 2.71   6 2.71   9 2.83   9 2.83
                             4 2.83   4 2.83   8 2.83   8 2.83  10 2.83  10 2.83
   8  0.000  0.000  0.000-   1 2.09   2 2.09   9 2.71   9 2.71  10 2.71  10 2.71   5 2.83   3 2.83
                             5 2.83   7 2.83   7 2.83   3 2.83   6 2.83   6 2.83
   9  0.500  0.000  0.500-   8 2.71   8 2.71   4 2.71   4 2.71   3 2.83   7 2.83   6 2.83   6 2.83
                             3 2.83   7 2.83   5 2.83   5 2.83
  10  0.000  0.500  0.500-   4 2.71   4 2.71   8 2.71   8 2.71   3 2.83   5 2.83   3 2.83   5 2.83
                             6 2.83   6 2.83   7 2.83   7 2.83

  LATTYP: Found a body centered tetragonal cell.
 ALAT       =     5.4176318178
 C/A-ratio  =     1.5414591587

  Lattice vectors:

 A1 = (   4.7585334704,   0.0000000000,  -3.0767842691)
 A2 = (  -1.4094168537,   4.5450175931,  -3.0767842691)
 A3 = (   0.0000000000,   0.0000000000,   5.6665900000)

Analysis of symmetry for initial positions (statically):
 Subroutine PRICEL returns following result:

  LATTYP: Found a simple tetragonal cell.
 ALAT       =     3.8308222395
 C/A-ratio  =     1.0899824713

[...]

   2 primitive cells build up your supercell.

 Routine SETGRP: Setting up the symmetry group for a
 body centered tetragonal supercell.

 Subroutine GETGRP returns: Found 16 space group operations
 (whereof 16 operations were pure point group operations)
 out of a pool of 16 trial point group operations.

The static configuration has the point symmetry D_4h.

Analysis of symmetry for dynamics (positions and initial velocities):
 Subroutine PRICEL returns following result:

  LATTYP: Found a simple tetragonal cell.
 ALAT       =     3.8308222395
 C/A-ratio  =     1.0899824713

  Lattice vectors:

 A1 = (   3.0839751621,  -2.2725087966,   0.0000000000)
 A2 = (   1.6745583084,   2.2725087966,   2.5898057309)
 A3 = (  -1.6745583084,  -2.2725087966,   3.0767842691)

   2 primitive cells build up your supercell.

 Routine SETGRP: Setting up the symmetry group for a
 body centered tetragonal supercell.

 Subroutine GETGRP returns: Found 16 space group operations
 (whereof 16 operations were pure point group operations)
 out of a pool of 16 trial point group operations.

The dynamic configuration has the point symmetry D_4h.

 Subroutine INISYM returns: Found 16 space group operations
 (whereof 16 operations are pure point group operations),
 and found     2 'primitive' translations

                                     Primitive cell

  volume of cell :      61.2774

  direct lattice vectors                    reciprocal lattice vectors
     3.083975162 -2.272508797  0.000000000     0.210148779 -0.154853695  0.000000000
     1.674558308  2.272508797  2.589805731     0.114104331  0.154848651  0.176472976
    -1.674558308 -2.272508797  3.076784269    -0.096044449 -0.130339955  0.176472976

  length of vectors
     3.830822240  3.830866153  4.175529092     0.261040565  0.261037572  0.239490608

  position of ions in fractional coordinates (direct lattice)
     1.000000000  0.000000000  0.500000000
     0.000000000  0.500000000  0.500000000
     1.000000000  0.000000000  0.000000000
     0.500000000  0.000000000  0.500000000
     0.500000000  0.500000000  0.000000000

  ion indices of the primitive-cell ions
   primitive index   ion index
                 1           1
                 2           3
                 3           4
                 4           5
                 5           9

 KPOINTS: EA

Automatic generation of k-mesh.
 Grid dimensions read from file:
 generate k-points for:    8    8    9

 Generating k-lattice:

  Cartesian coordinates                     Fractional coordinates (reciprocal lattice)
     0.026268597  0.008145932  0.000000000     0.125000000  0.000000000  0.000000000
     0.000000000  0.027502644  0.000000000     0.000000000  0.125000000  0.000000000
     0.012678259  0.017205406  0.019608108    -0.000000000 -0.000000000  0.111111111

  Length of vectors
     0.027502644  0.027502644  0.029004175

  Shift w.r.t. Gamma in fractional coordinates (k-lattice)
     0.000000000  0.000000000  0.000000000

 WARNING: IBZKPT: internal override: KBLOWUP is changed to .FALSE.
      ... skipping the blow-up phase ...

 Subroutine IBZKPT returns following result:

 Found    165 irreducible k-points:

 Following reciprocal coordinates:
            Coordinates               Weight
  0.000000  0.000000  0.000000      1.000000
  0.125000  0.000000  0.000000      4.000000
  0.250000  0.000000  0.000000      4.000000
  0.375000 -0.000000  0.000000      4.000000
  0.500000  0.000000  0.000000      2.000000
  0.125000  0.125000  0.000000      2.000000
  0.250000  0.125000  0.000000      4.000000
  0.375000  0.125000  0.000000      4.000000
  0.500000  0.125000  0.000000      4.000000
 -0.375000  0.125000  0.000000      4.000000
 -0.250000  0.125000  0.000000      4.000000
 -0.125000  0.125000  0.000000      2.000000
  0.250000  0.250000  0.000000      2.000000
  0.375000  0.250000  0.000000      4.000000
  0.500000  0.250000  0.000000      4.000000
 -0.375000  0.250000  0.000000      4.000000
 -0.250000  0.250000  0.000000      2.000000
  0.375000  0.375000  0.000000      2.000000
  0.500000  0.375000  0.000000      4.000000
 -0.375000  0.375000  0.000000      2.000000
  0.500000  0.500000  0.000000      1.000000
  0.000000  0.000000  0.111111      2.000000
  0.125000  0.000000  0.111111      4.000000
  0.250000 -0.000000  0.111111      4.000000
  0.375000  0.000000  0.111111      4.000000
  0.500000 -0.000000  0.111111      4.000000
 -0.375000  0.000000  0.111111      4.000000
 -0.250000  0.000000  0.111111      4.000000
 -0.125000 -0.000000  0.111111      4.000000
  0.125000  0.125000  0.111111      2.000000
  0.250000  0.125000  0.111111      4.000000
  0.375000  0.125000  0.111111      4.000000
  0.500000  0.125000  0.111111      4.000000
 -0.375000  0.125000  0.111111      4.000000
 -0.250000  0.125000  0.111111      4.000000
 -0.125000  0.125000  0.111111      4.000000
  0.250000  0.250000  0.111111      2.000000
  0.375000  0.250000  0.111111      4.000000
  0.500000  0.250000  0.111111      4.000000
 -0.375000  0.250000  0.111111      4.000000
 -0.250000  0.250000  0.111111      4.000000
 -0.125000  0.250000  0.111111      4.000000
  0.375000  0.375000  0.111111      2.000000
  0.500000  0.375000  0.111111      4.000000
 -0.375000  0.375000  0.111111      4.000000
 -0.250000  0.375000  0.111111      4.000000
 -0.125000  0.375000  0.111111      4.000000
  0.500000  0.500000  0.111111      2.000000
 -0.375000  0.500000  0.111111      4.000000
 -0.250000  0.500000  0.111111      4.000000
 -0.125000  0.500000  0.111111      4.000000
 -0.375000 -0.375000  0.111111      2.000000
 -0.250000 -0.375000  0.111111      4.000000
 -0.125000 -0.375000  0.111111      4.000000
 -0.250000 -0.250000  0.111111      2.000000
 -0.125000 -0.250000  0.111111      4.000000
 -0.125000 -0.125000  0.111111      2.000000
  0.000000 -0.000000  0.222222      2.000000
  0.125000 -0.000000  0.222222      4.000000
  0.250000  0.000000  0.222222      4.000000
[...]
  0.375000  0.375000  0.444444      2.000000
  0.500000  0.375000  0.444444      4.000000
 -0.375000  0.375000  0.444444      4.000000
 -0.250000  0.375000  0.444444      4.000000
 -0.125000  0.375000  0.444444      4.000000
  0.500000  0.500000  0.444444      2.000000
 -0.375000  0.500000  0.444444      4.000000
 -0.250000  0.500000  0.444444      4.000000
 -0.125000  0.500000  0.444444      4.000000
 -0.375000 -0.375000  0.444444      2.000000
 -0.250000 -0.375000  0.444444      4.000000
 -0.125000 -0.375000  0.444444      4.000000
 -0.250000 -0.250000  0.444444      2.000000
[...]
   0.12500000  0.12500000  0.11111111       0.003
   0.25000000  0.12500000  0.11111111       0.007
   0.37500000  0.12500000  0.11111111       0.007
   0.50000000  0.12500000  0.11111111       0.007
  -0.37500000  0.12500000  0.11111111       0.007
  -0.25000000  0.12500000  0.11111111       0.007
  -0.12500000  0.12500000  0.11111111       0.007
   0.25000000  0.25000000  0.11111111       0.003
   0.37500000  0.25000000  0.11111111       0.007
   0.50000000  0.25000000  0.11111111       0.007
  -0.37500000  0.25000000  0.11111111       0.007
  -0.25000000  0.25000000  0.11111111       0.007
  -0.12500000  0.25000000  0.11111111       0.007
   0.37500000  0.37500000  0.11111111       0.003
   0.50000000  0.37500000  0.11111111       0.007
  -0.37500000  0.37500000  0.11111111       0.007
  -0.25000000  0.37500000  0.11111111       0.007
  -0.12500000  0.37500000  0.11111111       0.007
   0.50000000  0.50000000  0.11111111       0.003
  -0.37500000  0.50000000  0.11111111       0.007
  -0.25000000  0.50000000  0.11111111       0.007
  -0.12500000  0.50000000  0.11111111       0.007
  -0.37500000 -0.37500000  0.11111111       0.003
  -0.25000000 -0.37500000  0.11111111       0.007
  -0.12500000 -0.37500000  0.11111111       0.007
  -0.25000000 -0.25000000  0.11111111       0.003
  -0.12500000 -0.25000000  0.11111111       0.007
  -0.12500000 -0.12500000  0.11111111       0.003
   0.00000000 -0.00000000  0.22222222       0.003
   0.12500000 -0.00000000  0.22222222       0.007
   0.25000000  0.00000000  0.22222222       0.007
[...]
   0.37500000  0.37500000  0.44444444       0.003
   0.50000000  0.37500000  0.44444444       0.007
  -0.37500000  0.37500000  0.44444444       0.007
  -0.25000000  0.37500000  0.44444444       0.007
  -0.12500000  0.37500000  0.44444444       0.007
   0.50000000  0.50000000  0.44444444       0.003
  -0.37500000  0.50000000  0.44444444       0.007
  -0.25000000  0.50000000  0.44444444       0.007
  -0.12500000  0.50000000  0.44444444       0.007
  -0.37500000 -0.37500000  0.44444444       0.003
  -0.25000000 -0.37500000  0.44444444       0.007
  -0.12500000 -0.37500000  0.44444444       0.007
  -0.25000000 -0.25000000  0.44444444       0.003
  -0.12500000 -0.25000000  0.44444444       0.007
  -0.12500000 -0.12500000  0.44444444       0.003

 position of ions in fractional coordinates (direct lattice)
   0.25000000  0.25000000  0.00000000
   0.75000000  0.75000000  0.00000000
   0.00000000  0.00000000  0.50000000
   0.50000000  0.50000000  0.00000000
   0.00000000  0.50000000  0.00000000
   0.50000000  0.50000000  0.50000000
   0.50000000  0.00000000  0.00000000
   0.00000000  0.00000000  0.00000000
   0.50000000  0.00000000  0.50000000
   0.00000000  0.50000000  0.50000000

 position of ions in cartesian coordinates  (Angst):
   0.83727915  1.13625440 -1.53839213
   2.51183746  3.40876319 -4.61517640
   0.00000000  0.00000000  2.83329500
   1.67455831  2.27250880 -3.07678427
  -0.70470843  2.27250880 -1.53839213
   1.67455831  2.27250880 -0.24348927
   2.37926674  0.00000000 -1.53839213
   0.00000000  0.00000000  0.00000000
   2.37926674  0.00000000  1.29490287
  -0.70470843  2.27250880  1.29490287

 k-point   1 :   0.0000 0.0000 0.0000  plane waves:    4097
 k-point   2 :   0.1250 0.0000 0.0000  plane waves:    4100
 k-point   3 :   0.2500 0.0000 0.0000  plane waves:    4088
 k-point   4 :   0.3750-0.0000 0.0000  plane waves:    4093
 k-point   5 :   0.5000 0.0000 0.0000  plane waves:    4100
 k-point   6 :   0.1250 0.1250 0.0000  plane waves:    4090
 k-point   7 :   0.2500 0.1250 0.0000  plane waves:    4093
 k-point   8 :   0.3750 0.1250 0.0000  plane waves:    4088
 k-point   9 :   0.5000 0.1250 0.0000  plane waves:    4094
 k-point  10 :  -0.3750 0.1250 0.0000  plane waves:    4095
 k-point  11 :  -0.2500 0.1250 0.0000  plane waves:    4087
 k-point  12 :  -0.1250 0.1250 0.0000  plane waves:    4095
 k-point  13 :   0.2500 0.2500 0.0000  plane waves:    4097
 k-point  14 :   0.3750 0.2500 0.0000  plane waves:    4079
 k-point  15 :   0.5000 0.2500 0.0000  plane waves:    4090
 k-point  16 :  -0.3750 0.2500 0.0000  plane waves:    4106
 k-point  17 :  -0.2500 0.2500 0.0000  plane waves:    4107
 k-point  18 :   0.3750 0.3750 0.0000  plane waves:    4088
 k-point  19 :   0.5000 0.3750 0.0000  plane waves:    4105
 k-point  20 :  -0.3750 0.3750 0.0000  plane waves:    4118
 k-point  21 :   0.5000 0.5000 0.0000  plane waves:    4084
 k-point  22 :   0.0000 0.0000 0.1111  plane waves:    4093
 k-point  23 :   0.1250 0.0000 0.1111  plane waves:    4089
 k-point  24 :   0.2500-0.0000 0.1111  plane waves:    4097
 k-point  25 :   0.3750 0.0000 0.1111  plane waves:    4089
 k-point  26 :   0.5000-0.0000 0.1111  plane waves:    4086
 k-point  27 :  -0.3750 0.0000 0.1111  plane waves:    4092
 k-point  28 :  -0.2500 0.0000 0.1111  plane waves:    4088
 k-point  29 :  -0.1250-0.0000 0.1111  plane waves:    4095
 k-point  30 :   0.1250 0.1250 0.1111  plane waves:    4094
 k-point  31 :   0.2500 0.1250 0.1111  plane waves:    4102
 k-point  32 :   0.3750 0.1250 0.1111  plane waves:    4086
 k-point  33 :   0.5000 0.1250 0.1111  plane waves:    4104
 k-point  34 :  -0.3750 0.1250 0.1111  plane waves:    4092
 k-point  35 :  -0.2500 0.1250 0.1111  plane waves:    4090
 k-point  36 :  -0.1250 0.1250 0.1111  plane waves:    4091
 k-point  37 :   0.2500 0.2500 0.1111  plane waves:    4097
 k-point  38 :   0.3750 0.2500 0.1111  plane waves:    4085
 k-point  39 :   0.5000 0.2500 0.1111  plane waves:    4096
 k-point  40 :  -0.3750 0.2500 0.1111  plane waves:    4102
 k-point  41 :  -0.2500 0.2500 0.1111  plane waves:    4094
 k-point  42 :  -0.1250 0.2500 0.1111  plane waves:    4090
 k-point  43 :   0.3750 0.3750 0.1111  plane waves:    4106
 k-point  44 :   0.5000 0.3750 0.1111  plane waves:    4103
 k-point  45 :  -0.3750 0.3750 0.1111  plane waves:    4098
 k-point  46 :  -0.2500 0.3750 0.1111  plane waves:    4094
 k-point  47 :  -0.1250 0.3750 0.1111  plane waves:    4098
 k-point  48 :   0.5000 0.5000 0.1111  plane waves:    4106
 k-point  49 :  -0.3750 0.5000 0.1111  plane waves:    4083
 k-point  50 :  -0.2500 0.5000 0.1111  plane waves:    4083
 k-point  51 :  -0.1250 0.5000 0.1111  plane waves:    4088
 k-point  52 :  -0.3750-0.3750 0.1111  plane waves:    4084
 k-point  53 :  -0.2500-0.3750 0.1111  plane waves:    4085
 k-point  54 :  -0.1250-0.3750 0.1111  plane waves:    4090
 k-point  55 :  -0.2500-0.2500 0.1111  plane waves:    4081
 k-point  56 :  -0.1250-0.2500 0.1111  plane waves:    4088
 k-point  57 :  -0.1250-0.1250 0.1111  plane waves:    4083
 k-point  58 :   0.0000-0.0000 0.2222  plane waves:    4111
 k-point  59 :   0.1250-0.0000 0.2222  plane waves:    4096
 k-point  60 :   0.2500 0.0000 0.2222  plane waves:    4098
[...]
 k-point 151 :   0.3750 0.3750 0.4444  plane waves:    4073
 k-point 152 :   0.5000 0.3750 0.4444  plane waves:    4086
 k-point 153 :  -0.3750 0.3750 0.4444  plane waves:    4085
 k-point 154 :  -0.2500 0.3750 0.4444  plane waves:    4074
 k-point 155 :  -0.1250 0.3750 0.4444  plane waves:    4082
 k-point 156 :   0.5000 0.5000 0.4444  plane waves:    4094
 k-point 157 :  -0.3750 0.5000 0.4444  plane waves:    4094
 k-point 158 :  -0.2500 0.5000 0.4444  plane waves:    4095
 k-point 159 :  -0.1250 0.5000 0.4444  plane waves:    4088
 k-point 160 :  -0.3750-0.3750 0.4444  plane waves:    4086
 k-point 161 :  -0.2500-0.3750 0.4444  plane waves:    4083
 k-point 162 :  -0.1250-0.3750 0.4444  plane waves:    4090
 k-point 163 :  -0.2500-0.2500 0.4444  plane waves:    4099
 k-point 164 :  -0.1250-0.2500 0.4444  plane waves:    4098
 k-point 165 :  -0.1250-0.1250 0.4444  plane waves:    4101

 maximum and minimum number of plane-waves per node :      2080     2012

 maximum number of plane-waves:      4118
 maximum index in each direction:
   IXMAX=   11   IYMAX=   11   IZMAX=   11
   IXMIN=  -11   IYMIN=  -11   IZMIN=  -11

 parallel 3D FFT for wavefunctions:
    minimum data exchange during FFTs selected (reduces bandwidth)
 parallel 3D FFT for charge:
    minimum data exchange during FFTs selected (reduces bandwidth)

 Broyden mixing: mesh for mixing (old mesh)
   NGX = 23   NGY = 23   NGZ = 23
  (NGX  = 96   NGY  = 96   NGZ  = 96)
  gives a total of  12167 points

 initial charge density was supplied:
 charge density of overlapping atoms calculated
 number of electron      98.0000000 magnetization
 keeping initial charge density in first step

 Maximum index for augmentation-charges        25515 (set IRDMAX)

 First call to EWALD:  gamma=   0.357
 Maximum number of real-space cells 3x 3x 3
 Maximum number of reciprocal cells 3x 3x 3

--------------------------------------- Iteration      1(   1)  ---------------------------------------

 eigenvalue-minimisations  : 19800
 total energy-change (2. order) : 0.1087369E+04  (-0.6760848E+04)
 number of electron      98.0000000 magnetization
 augmentation part       98.0000000 magnetization

 Free energy of the ion-electron system (eV)
  alpha Z        PSCENC =       681.69026773
  Ewald energy   TEWEN  =     -9718.20312234
  -Hartree energ DENC   =     -2280.38946045
  -exchange      EXHF   =         0.00000000
  -V(xc)+E(xc)   XCENC  =       474.24231334
  PAW double counting   =      9166.97638771    -9126.13493418
  entropy T*S    EENTRO =        -0.00040408
  eigenvalues    EBANDS =       367.02076146
  atomic energy  EATOM  =     11522.16744521
  free energy    TOTEN  =      1087.36925440 eV

  energy without entropy =     1087.36965848  energy(sigma->0) =     1087.36945644

[...]

 eigenvalue-minimisations  : 21768
 total energy-change (2. order) :-0.1267255E+04  (-0.1232065E+04)
 number of electron      98.0000000 magnetization
 augmentation part       98.0000000 magnetization

[...]

 eigenvalue-minimisations  :     0
 total energy-change (2. order) : 0.1951958E-07  (-0.2545822E-07)
 number of electron      98.0000000 magnetization
 augmentation part       14.4023682 magnetization

[...]

 eigenvalue-minimisations  :     0
 total energy-change (2. order) :-0.5022230E-08  ( 0.1969871E-08)
 number of electron      98.0000000 magnetization
 augmentation part       14.4023622 magnetization

[...]

 eigenvalue-minimisations  :     0
 total energy-change (2. order) :-0.1875378E-08  ( 0.3037374E-09)
 number of electron      98.0000000 magnetization
 augmentation part       14.4023623 magnetization

[...]

 eigenvalue-minimisations  :     0
 total energy-change (2. order) :-0.1180524E-08  (-0.5991504E-09)
 number of electron      98.0000000 magnetization
 augmentation part       14.4023617 magnetization

[...]

--------------------------------------- Iteration      1(  38)  ---------------------------------------

 eigenvalue-minimisations  :     0
 total energy-change (2. order) : 0.3437890E-09  ( 0.1553084E-11)
 number of electron      98.0000000 magnetization
 augmentation part       14.4023619 magnetization

 Free energy of the ion-electron system (eV)
  alpha Z        PSCENC =       681.69026773
  Ewald energy   TEWEN  =     -9718.20312234
  -Hartree energ DENC   =     -2164.45827781
  -exchange      EXHF   =         0.00000000
  -V(xc)+E(xc)   XCENC  =       484.24688088
  PAW double counting   =     13944.50542627   -13925.38223294
  entropy T*S    EENTRO =        -0.00174140
  eigenvalues    EBANDS =     -1007.20892086
  atomic energy  EATOM  =     11522.16744521
  free energy    TOTEN  =      -182.64427527 eV

  energy without entropy =     -182.64253387  energy(sigma->0) =     -182.64340457

  average scaling for gradient   1.0529

 average (electrostatic) potential at core
  the test charge radii are     0.7672  1.0818  0.9892
  (the norm of the test charge is              1.0000)
       1 -20.6169       2 -20.6169       3 -73.5445       4 -73.6313       5 -73.5447
       6 -73.5445       7 -73.5447       8 -73.6313       9 -79.7884      10 -79.7884

 E-fermi :  13.0400     XC(G=0): -14.4195     alpha+bet :-21.0219

 Fermi energy:        13.0400088223

 k-point     1 :       0.0000    0.0000    0.0000
  band No.  band energies     occupation
      1     -49.9666      2.00000
      2     -49.7453      2.00000
      3     -49.7440      2.00000
      4     -49.7438      2.00000
      5     -49.6741      2.00000
      6     -49.5936      2.00000
      7     -24.6748      2.00000
      8     -24.0656      2.00000
      9     -24.0654      2.00000
     10     -23.9079      2.00000
     11     -23.8362      2.00000
     12     -23.6137      2.00000
     13     -23.6135      2.00000
     14     -23.0927      2.00000
     15     -23.0926      2.00000
     16     -23.0306      2.00000
     17     -22.9849      2.00000
     18     -22.8147      2.00000
     19     -22.7716      2.00000
     20     -22.7714      2.00000
     21     -22.7708      2.00000
     22     -22.7591      2.00000
     23     -22.7589      2.00000
     24     -22.5736      2.00000
     25       0.9531      2.00000
     26       2.3039      2.00000
     27       3.2704      2.00000
     28       4.9841      2.00000
     29       5.3745      2.00000
     30       5.3745      2.00000
     31       8.0197      2.00000
     32       8.1794      2.00000
     33       8.1795      2.00000
     34       8.2341      2.00000
     35       8.5490      2.00000
     36       8.5932      2.00000
     37       9.9426      2.00000
     38       9.9426      2.00000
     39      10.1925      2.00000
     40      10.5392      2.00000
     41      10.5395      2.00000
     42      10.6090      2.00000
     43      11.4857      2.00000
     44      11.4860      2.00000
     45      11.9742      2.00000
     46      11.9744      2.00000
     47      12.0993      2.00000
     48      12.2207      2.00000
     49      12.8375      2.00000
     50      13.5191      0.00000
     51      13.5191      0.00000
     52      13.5204      0.00000
     53      13.8447      0.00000
     54      14.3254      0.00000
     55      14.8041      0.00000
     56      14.9342      0.00000
     57      15.4690      0.00000
     58      15.4692      0.00000
     59      16.2427      0.00000
     60      16.5756      0.00000

[...]

 k-point   165 :      -0.1250   -0.1250    0.4444
  band No.  band energies     occupation
      1     -49.8856      2.00000
      2     -49.7745      2.00000
      3     -49.7458      2.00000
      4     -49.7159      2.00000
      5     -49.7019      2.00000
      6     -49.6489      2.00000
      7     -24.2830      2.00000
      8     -23.8972      2.00000
      9     -23.8675      2.00000
     10     -23.6560      2.00000
     11     -23.5944      2.00000
     12     -23.5425      2.00000
     13     -23.4018      2.00000
     14     -23.3179      2.00000
     15     -23.2647      2.00000
     16     -23.1339      2.00000
     17     -23.0679      2.00000
     18     -23.0109      2.00000
     19     -23.0090      2.00000
     20     -22.9537      2.00000
     21     -22.8966      2.00000
     22     -22.8716      2.00000
     23     -22.8382      2.00000
     24     -22.7907      2.00000
     25       2.4040      2.00000
     26       3.3780      2.00000
     27       3.8750      2.00000
     28       4.6158      2.00000
     29       6.1410      2.00000
     30       6.2448      2.00000
     31       7.2599      2.00000
     32       7.9893      2.00000
     33       8.0333      2.00000
     34       8.2358      2.00000
     35       8.3825      2.00000
     36       8.7633      2.00000
     37       8.8329      2.00000
     38       8.9921      2.00000
     39       9.0276      2.00000
     40       9.1153      2.00000
     41       9.9291      2.00000
     42       9.9617      2.00000
     43      10.7327      2.00000
     44      11.2119      2.00000
     45      11.8457      2.00000
     46      12.2163      2.00000
     47      12.3373      2.00000
     48      12.5111      2.00000
     49      12.5597      2.00000
     50      12.9547      2.00000
     51      13.3561      0.00000
     52      13.3896      0.00000
     53      13.7825      0.00000
     54      13.9664      0.00000
     55      14.5345      0.00000
     56      15.0860      0.00000
     57      15.4931      0.00000
     58      16.4039      0.00000
     59      16.5992      0.00000
     60      16.7723      0.00000

 soft charge-density along one line, spin component           1
         0         1         2         3         4         5         6         7         8         9
 total charge-density along one line

------------------------ aborting loop because EDIFF is reached ----------------------------------------

  FREE ENERGIE OF THE ION-ELECTRON SYSTEM (eV)
  free  energy   TOTEN  =      -182.64427527 eV

  energy  without entropy=     -182.64253387  energy(sigma->0) =     -182.64340457

 writing wavefunctions