 vasp.6.2.0 18Jan21 (build Jan 05 2022 15:41:44) complex

 executed on             LinuxIFC date 2025.05.07  17:26:58

 INCAR:
   SYSTEM = routine with relax: pwdword
   ICHARG = 2
   NPAR = 6
   KPAR = 2
   NCORE = 2
   ADDGRID = T
   PREC = Acc
   ENCUT = 600
   METAGGA = R2SCAN
   LASPH = .TRUE.
   LMIXTAU = .FALSE.
   ALGO = A
   EDIFF = 1E-9
   NELM = 100
   NELMIN = 6
   IALGO = 38
   LREAL = F
   NSW = 0
   ISIF = -1
   ISMEAR = 0
   SIGMA = 0.02

 POTCAR:    PAW_PBE B 06Sep2000
 POTCAR:    PAW_PBE Mo_sv 02Feb2006
 POTCAR:    PAW_PBE Si 05Jan2001
|           W    W    AA    RRRRR   N    N  II  N    N   GGGG   !!!           |
|           W    W   A  A   R    R  NN   N  II  NN   N  G    G  !!!           |
|           W    W  A    A  R    R  N N  N  II  N N  N  G       !!!           |
|           W WW W  AAAAAA  RRRRR   N  N N  II  N  N N  G  GGG   !            |
|           WW  WW  A    A  R   R   N   NN  II  N   NN  G    G                |
|           W    W  A    A  R    R  N    N  II  N    N   GGGG   !!!           |
|     For optimal performance we recommend to set                             |
|       NCORE = 2 up to number-of-cores-per-socket                            |
|     This setting can greatly improve the performance of VASP for DFT.       |
|     The default, NCORE=1 might be grossly inefficient on modern             |
|     multi-core architectures or massively parallel machines. Do your        |
|     Unfortunately you need to use the default for GW and RPA                |
|     calculations (for HF NCORE is supported but not extensively tested      |
|     yet).                                                                   |

 POTCAR:    PAW_PBE B 06Sep2000
   VRHFIN =B: s2p1

   TITEL  = PAW_PBE B 06Sep2000
   POMASS =   10.811; ZVAL   =    3.000    mass and valenz
   ENMAX  =  318.614; ENMIN  =  238.960 eV

 POTCAR:    PAW_PBE Mo_sv 02Feb2006
   VRHFIN =Mo: 4p5s4d

   TITEL  = PAW_PBE Mo_sv 02Feb2006
   POMASS =   95.940; ZVAL   =   14.000    mass and valenz
   ENMAX  =  242.676; ENMIN  =  182.007 eV

 POTCAR:    PAW_PBE Si 05Jan2001
   VRHFIN =Si: s2p2

   TITEL  = PAW_PBE Si 05Jan2001
   POMASS =   28.085; ZVAL   =    4.000    mass and valenz
   ENMAX  =  245.345; ENMIN  =  184.009 eV

  PAW_PBE B 06Sep2000                   :
  PAW_PBE Mo_sv 02Feb2006               :
  PAW_PBE Si 05Jan2001                  :

 POSCAR: EA119
  positions in direct lattice

 METAGGA = R2SCA    LMAXTAU =  6    LMIXTAU =  F

 ion  position               nearest neighbor table
   1  0.253  0.247  0.500-   9 2.06  10 2.12   6 2.77   8 2.77   7 2.79   7 2.79   5 2.79   5 2.79
                             6 2.81   8 2.81
   2  0.747  0.753  0.500-   9 2.06  10 2.12   8 2.77   6 2.77   5 2.79   5 2.79   7 2.79   7 2.79
                             6 2.81   8 2.81
   3  0.247  0.747  0.994-  10 2.06   9 2.12   6 2.77   8 2.77   7 2.79   5 2.79   7 2.79   5 2.79
                             6 2.81   8 2.81
   4  0.753  0.253  0.006-  10 2.06   9 2.12   8 2.77   6 2.77   7 2.79   5 2.79   5 2.79   7 2.79
                             8 2.81   6 2.81
   5  0.250  0.250  0.000-   2 2.79   2 2.79   3 2.79   4 2.79   1 2.79   1 2.79   4 2.79   3 2.79
                             8 2.96   8 2.96   6 2.96   6 2.96
   6  0.750  0.250  0.500-   9 1.84  10 1.84   3 2.77   1 2.77   2 2.77   4 2.77   3 2.81   4 2.81
                             1 2.81   2 2.81   7 2.96   7 2.96   5 2.96   5 2.96
   7  0.750  0.750  0.000-   1 2.79   1 2.79   4 2.79   3 2.79   2 2.79   2 2.79   3 2.79   4 2.79
                             8 2.96   6 2.96   6 2.96   8 2.96
   8  0.250  0.750  0.500-   9 1.84  10 1.84   4 2.77   2 2.77   1 2.77   3 2.77   4 2.81   3 2.81
                             1 2.81   2 2.81   7 2.96   5 2.96   5 2.96   7 2.96
   9  0.500  0.000  0.500-   6 1.84   8 1.84   1 2.06   2 2.06   4 2.12   3 2.12
  10  0.000  0.500  0.500-   6 1.84   8 1.84   3 2.06   4 2.06   1 2.12   2 2.12

  LATTYP: Found a body centered tetragonal cell.
 ALAT       =     5.9100227976
 C/A-ratio  =     1.2485477318

  Lattice vectors:

 A1 = (   5.0113822202,   0.0000000000,  -2.4418328934)
 A2 = (  -1.9584674061,   4.6128469709,  -2.4418328934)
 A3 = (   0.0000000000,   0.0000000000,   5.5746300000)

Analysis of symmetry for initial positions (statically):
 Subroutine PRICEL returns:
 Original cell was already a primitive cell.

 Routine SETGRP: Setting up the symmetry group for a
 body centered tetragonal supercell.

 Subroutine GETGRP returns: Found 16 space group operations
 (whereof  8 operations were pure point group operations)
 out of a pool of 16 trial point group operations.

The static configuration has the point symmetry C_4h.
 The point group associated with its full space group is D_4h.

Analysis of symmetry for dynamics (positions and initial velocities):
 Subroutine PRICEL returns:
 Original cell was already a primitive cell.

 Routine SETGRP: Setting up the symmetry group for a
 body centered tetragonal supercell.

 Subroutine GETGRP returns: Found 16 space group operations
 (whereof  8 operations were pure point group operations)
 out of a pool of 16 trial point group operations.

The dynamic configuration has the point symmetry C_4h.
 The point group associated with its full space group is D_4h.

 Subroutine INISYM returns: Found 16 space group operations
 (whereof  8 operations are pure point group operations),
 and found     1 'primitive' translations

                                     Primitive cell

  volume of cell :     128.8673

  direct lattice vectors                    reciprocal lattice vectors
     5.011382220  0.000000000 -2.441832893     0.199545745  0.084720746  0.000000000
    -1.958467406  4.612846971 -2.441832893     0.000000000  0.216785861  0.000000000
     0.000000000  0.000000000  5.574630000     0.087406225  0.132067734  0.179384103

  length of vectors
     5.574630000  5.574630000  5.574630000     0.216785861  0.216785861  0.239291435

  position of ions in fractional coordinates (direct lattice)
     0.253100000  0.246900000  0.500000000
     0.746900000  0.753100000  0.500000000
     0.246900000  0.746900000  0.993800000
     0.753100000  0.253100000  0.006200000
     0.250000000  0.250000000  1.000000000
     0.750000000  0.250000000  0.500000000
     0.750000000  0.750000000  1.000000000
     0.250000000  0.750000000  0.500000000
     0.500000000  0.000000000  0.500000000
     0.000000000  0.500000000  0.500000000

  ion indices of the primitive-cell ions
   primitive index   ion index
                 1           1
                 2           2
                 3           3
                 4           4
                 5           5
                 6           6
                 7           7
                 8           8
                 9           9
                10          10

 KPOINTS: EA

Automatic generation of k-mesh.
 Grid dimensions read from file:
 generate k-points for:    8    8    8

 Generating k-lattice:

  Cartesian coordinates                     Fractional coordinates (reciprocal lattice)
     0.024943218  0.010590093  0.000000000     0.125000000  0.000000000  0.000000000
     0.000000000  0.027098233  0.000000000     0.000000000  0.125000000  0.000000000
     0.010925778  0.016508467  0.022423013    -0.000000000  0.000000000  0.125000000

  Length of vectors
     0.027098233  0.027098233  0.029911429

  Shift w.r.t. Gamma in fractional coordinates (k-lattice)
     0.000000000  0.000000000  0.000000000

 Subroutine IBZKPT returns following result:

 Found     59 irreducible k-points:

 Following reciprocal coordinates:
            Coordinates               Weight
  0.000000  0.000000  0.000000      1.000000
  0.125000  0.000000  0.000000      8.000000
  0.250000  0.000000  0.000000      8.000000
  0.375000  0.000000  0.000000      8.000000
  0.500000  0.000000  0.000000      4.000000
  0.125000  0.125000  0.000000      8.000000
  0.250000  0.125000  0.000000     16.000000
  0.375000  0.125000  0.000000     16.000000
  0.500000  0.125000  0.000000     16.000000
 -0.375000  0.125000  0.000000     16.000000
 -0.250000  0.125000  0.000000     16.000000
 -0.125000  0.125000  0.000000      4.000000
  0.250000  0.250000  0.000000      8.000000
  0.375000  0.250000  0.000000     16.000000
  0.500000  0.250000  0.000000     16.000000
 -0.375000  0.250000  0.000000     16.000000
 -0.250000  0.250000  0.000000      4.000000
  0.375000  0.375000  0.000000      8.000000
  0.500000  0.375000  0.000000     16.000000
 -0.375000  0.375000  0.000000      4.000000
  0.500000  0.500000  0.000000      2.000000
  0.125000  0.125000  0.125000      8.000000
  0.250000  0.125000  0.125000     16.000000
  0.375000  0.125000  0.125000      8.000000
 -0.125000  0.125000  0.125000      4.000000
  0.250000  0.250000  0.125000      8.000000
  0.375000  0.250000  0.125000     16.000000
  0.500000  0.250000  0.125000      8.000000
 -0.250000  0.250000  0.125000      8.000000
 -0.125000  0.250000  0.125000      8.000000
  0.375000  0.375000  0.125000      4.000000
 -0.375000  0.375000  0.125000      8.000000
 -0.250000  0.375000  0.125000     16.000000
 -0.125000  0.375000  0.125000      8.000000
  0.500000  0.500000  0.125000      4.000000
 -0.375000  0.500000  0.125000     16.000000
 -0.250000  0.500000  0.125000     16.000000
 -0.125000  0.500000  0.125000      8.000000
 -0.375000 -0.375000  0.125000      8.000000
 -0.250000 -0.375000  0.125000     16.000000
 -0.125000 -0.375000  0.125000      8.000000
 -0.250000 -0.250000  0.125000      8.000000
 -0.125000 -0.250000  0.125000      8.000000
 -0.125000 -0.125000  0.125000      2.000000
  0.250000  0.250000  0.250000      2.000000
 -0.250000  0.250000  0.250000      4.000000
 -0.375000  0.375000  0.250000      8.000000
 -0.250000  0.375000  0.250000      8.000000
  0.500000  0.500000  0.250000      4.000000
 -0.375000  0.500000  0.250000     16.000000
 -0.250000  0.500000  0.250000      8.000000
 -0.375000 -0.375000  0.250000      8.000000
 -0.250000 -0.375000  0.250000      8.000000
 -0.250000 -0.250000  0.250000      2.000000
 -0.375000  0.375000  0.375000      4.000000
  0.500000  0.500000  0.375000      4.000000
 -0.375000  0.500000  0.375000      8.000000
 -0.375000 -0.375000  0.375000      2.000000
  0.500000  0.500000  0.500000      1.000000

 Following cartesian coordinates:
            Coordinates               Weight
  0.000000  0.000000  0.000000      1.000000
  0.024943  0.010590  0.000000      8.000000
  0.049886  0.021180  0.000000      8.000000
  0.074830  0.031770  0.000000      8.000000
  0.099773  0.042360  0.000000      4.000000
  0.024943  0.037688  0.000000      8.000000
  0.049886  0.048278  0.000000     16.000000
  0.074830  0.058869  0.000000     16.000000
  0.099773  0.069459  0.000000     16.000000
 -0.074830 -0.004672  0.000000     16.000000
 -0.049886  0.005918  0.000000     16.000000
 -0.024943  0.016508  0.000000      4.000000
  0.049886  0.075377  0.000000      8.000000
  0.074830  0.085967  0.000000     16.000000
  0.099773  0.096557  0.000000     16.000000
 -0.074830  0.022426  0.000000     16.000000
 -0.049886  0.033016  0.000000      4.000000
[...]
  -0.01401744  0.08721307  0.02242301       0.016
   0.11069865  0.16726177  0.02242301       0.008
  -0.06390388  0.09313112  0.02242301       0.031
  -0.03896066  0.10372121  0.02242301       0.031
  -0.01401744  0.11431130  0.02242301       0.016
  -0.06390388 -0.09655651  0.02242301       0.016
  -0.03896066 -0.08596642  0.02242301       0.031
  -0.01401744 -0.07537632  0.02242301       0.016
  -0.03896066 -0.05886819  0.02242301       0.016
  -0.01401744 -0.04827809  0.02242301       0.016
  -0.01401744 -0.02117986  0.02242301       0.004
   0.07173799  0.10839359  0.04484603       0.004
  -0.02803488  0.06603321  0.04484603       0.008
  -0.05297810  0.08254135  0.04484603       0.016
  -0.02803488  0.09313144  0.04484603       0.016
   0.12162443  0.18377024  0.04484603       0.008
  -0.05297810  0.10963958  0.04484603       0.031
  -0.02803488  0.12022968  0.04484603       0.016
  -0.05297810 -0.08004804  0.04484603       0.016
  -0.02803488 -0.06945795  0.04484603       0.016
  -0.02803488 -0.04235972  0.04484603       0.004
  -0.04205232  0.09904982  0.06726904       0.008
   0.13255021  0.20027870  0.06726904       0.008
  -0.04205232  0.12614805  0.06726904       0.016
  -0.04205232 -0.06353958  0.06726904       0.004
   0.14347599  0.21678717  0.08969205       0.002

 k-points in reciprocal lattice and weights: EA
   0.00000000  0.00000000  0.00000000       0.002
   0.12500000  0.00000000  0.00000000       0.016
   0.25000000  0.00000000  0.00000000       0.016
   0.37500000  0.00000000  0.00000000       0.016
   0.50000000  0.00000000  0.00000000       0.008
   0.12500000  0.12500000  0.00000000       0.016
   0.25000000  0.12500000  0.00000000       0.031
   0.37500000  0.12500000  0.00000000       0.031
   0.50000000  0.12500000  0.00000000       0.031
  -0.37500000  0.12500000  0.00000000       0.031
  -0.25000000  0.12500000  0.00000000       0.031
  -0.12500000  0.12500000  0.00000000       0.008
   0.25000000  0.25000000  0.00000000       0.016
   0.37500000  0.25000000  0.00000000       0.031
   0.50000000  0.25000000  0.00000000       0.031
  -0.37500000  0.25000000  0.00000000       0.031
  -0.25000000  0.25000000  0.00000000       0.008
   0.37500000  0.37500000  0.00000000       0.016
   0.50000000  0.37500000  0.00000000       0.031
  -0.37500000  0.37500000  0.00000000       0.008
   0.50000000  0.50000000  0.00000000       0.004
   0.12500000  0.12500000  0.12500000       0.016
   0.25000000  0.12500000  0.12500000       0.031
   0.37500000  0.12500000  0.12500000       0.016
  -0.12500000  0.12500000  0.12500000       0.008
   0.25000000  0.25000000  0.12500000       0.016
   0.37500000  0.25000000  0.12500000       0.031
   0.50000000  0.25000000  0.12500000       0.016
  -0.25000000  0.25000000  0.12500000       0.016
  -0.12500000  0.25000000  0.12500000       0.016
   0.37500000  0.37500000  0.12500000       0.008
  -0.37500000  0.37500000  0.12500000       0.016
  -0.25000000  0.37500000  0.12500000       0.031
  -0.12500000  0.37500000  0.12500000       0.016
   0.50000000  0.50000000  0.12500000       0.008
  -0.37500000  0.50000000  0.12500000       0.031
  -0.25000000  0.50000000  0.12500000       0.031
  -0.12500000  0.50000000  0.12500000       0.016
  -0.37500000 -0.37500000  0.12500000       0.016
  -0.25000000 -0.37500000  0.12500000       0.031
  -0.12500000 -0.37500000  0.12500000       0.016
  -0.25000000 -0.25000000  0.12500000       0.016
  -0.12500000 -0.25000000  0.12500000       0.016
  -0.12500000 -0.12500000  0.12500000       0.004
   0.25000000  0.25000000  0.25000000       0.004
  -0.25000000  0.25000000  0.25000000       0.008
  -0.37500000  0.37500000  0.25000000       0.016
  -0.25000000  0.37500000  0.25000000       0.016
   0.50000000  0.50000000  0.25000000       0.008
  -0.37500000  0.50000000  0.25000000       0.031
  -0.25000000  0.50000000  0.25000000       0.016
  -0.37500000 -0.37500000  0.25000000       0.016
  -0.25000000 -0.37500000  0.25000000       0.016
  -0.25000000 -0.25000000  0.25000000       0.004
  -0.37500000  0.37500000  0.37500000       0.008
   0.50000000  0.50000000  0.37500000       0.008
  -0.37500000  0.50000000  0.37500000       0.016
  -0.37500000 -0.37500000  0.37500000       0.004
   0.50000000  0.50000000  0.50000000       0.002

 position of ions in fractional coordinates (direct lattice)
   0.25310000  0.24690000  0.50000000
   0.74690000  0.75310000  0.50000000
   0.24690000  0.74690000  0.99380000
   0.75310000  0.25310000  0.00620000
   0.25000000  0.25000000  0.00000000
   0.75000000  0.25000000  0.50000000
   0.75000000  0.75000000  0.00000000
   0.25000000  0.75000000  0.50000000
   0.50000000  0.00000000  0.50000000
   0.00000000  0.50000000  0.50000000

 position of ions in cartesian coordinates  (Angst):
   0.78483524  1.13891192  1.56639855
   2.26807958  3.47393505 -0.87543434
  -0.22546904  3.44533540  3.11337376
   3.27838385  1.16751157 -2.42240955
   0.76322870  1.15321174 -1.22091645
   3.26891981  1.15321174  0.34548211
   2.28968611  3.45963523 -3.66274934
  -0.21600500  3.45963523  0.34548211
   2.50569111  0.00000000  1.56639855
  -0.97923370  2.30642349  1.56639855

 k-point   1 :   0.0000 0.0000 0.0000  plane waves:    4283
 k-point   2 :   0.1250 0.0000 0.0000  plane waves:    4284
 k-point   3 :   0.2500 0.0000 0.0000  plane waves:    4299
 k-point   4 :   0.3750 0.0000 0.0000  plane waves:    4288
 k-point   5 :   0.5000 0.0000 0.0000  plane waves:    4306
 k-point   6 :   0.1250 0.1250 0.0000  plane waves:    4278
 k-point   7 :   0.2500 0.1250 0.0000  plane waves:    4293
 k-point   8 :   0.3750 0.1250 0.0000  plane waves:    4309
 k-point   9 :   0.5000 0.1250 0.0000  plane waves:    4298
 k-point  10 :  -0.3750 0.1250 0.0000  plane waves:    4303
 k-point  11 :  -0.2500 0.1250 0.0000  plane waves:    4298
 k-point  12 :  -0.1250 0.1250 0.0000  plane waves:    4281
 k-point  13 :   0.2500 0.2500 0.0000  plane waves:    4284
 k-point  14 :   0.3750 0.2500 0.0000  plane waves:    4307
 k-point  15 :   0.5000 0.2500 0.0000  plane waves:    4301
 k-point  16 :  -0.3750 0.2500 0.0000  plane waves:    4298
 k-point  17 :  -0.2500 0.2500 0.0000  plane waves:    4313
 k-point  18 :   0.3750 0.3750 0.0000  plane waves:    4309
 k-point  19 :   0.5000 0.3750 0.0000  plane waves:    4305
 k-point  20 :  -0.3750 0.3750 0.0000  plane waves:    4308
 k-point  21 :   0.5000 0.5000 0.0000  plane waves:    4312
 k-point  22 :   0.1250 0.1250 0.1250  plane waves:    4286
 k-point  23 :   0.2500 0.1250 0.1250  plane waves:    4295
 k-point  24 :   0.3750 0.1250 0.1250  plane waves:    4302
 k-point  25 :  -0.1250 0.1250 0.1250  plane waves:    4286
 k-point  26 :   0.2500 0.2500 0.1250  plane waves:    4294
 k-point  27 :   0.3750 0.2500 0.1250  plane waves:    4304
 k-point  28 :   0.5000 0.2500 0.1250  plane waves:    4301
 k-point  29 :  -0.2500 0.2500 0.1250  plane waves:    4298
 k-point  30 :  -0.1250 0.2500 0.1250  plane waves:    4301
 k-point  31 :   0.3750 0.3750 0.1250  plane waves:    4290
 k-point  32 :  -0.3750 0.3750 0.1250  plane waves:    4306
 k-point  33 :  -0.2500 0.3750 0.1250  plane waves:    4302
 k-point  34 :  -0.1250 0.3750 0.1250  plane waves:    4293
 k-point  35 :   0.5000 0.5000 0.1250  plane waves:    4308
 k-point  36 :  -0.3750 0.5000 0.1250  plane waves:    4302
 k-point  37 :  -0.2500 0.5000 0.1250  plane waves:    4298
 k-point  38 :  -0.1250 0.5000 0.1250  plane waves:    4305
 k-point  39 :  -0.3750-0.3750 0.1250  plane waves:    4309
 k-point  40 :  -0.2500-0.3750 0.1250  plane waves:    4305
 k-point  41 :  -0.1250-0.3750 0.1250  plane waves:    4295
 k-point  42 :  -0.2500-0.2500 0.1250  plane waves:    4299
 k-point  43 :  -0.1250-0.2500 0.1250  plane waves:    4299
 k-point  44 :  -0.1250-0.1250 0.1250  plane waves:    4295
 k-point  45 :   0.2500 0.2500 0.2500  plane waves:    4296
 k-point  46 :  -0.2500 0.2500 0.2500  plane waves:    4316
 k-point  47 :  -0.3750 0.3750 0.2500  plane waves:    4299
 k-point  48 :  -0.2500 0.3750 0.2500  plane waves:    4303
 k-point  49 :   0.5000 0.5000 0.2500  plane waves:    4312
 k-point  50 :  -0.3750 0.5000 0.2500  plane waves:    4297
 k-point  51 :  -0.2500 0.5000 0.2500  plane waves:    4312
 k-point  52 :  -0.3750-0.3750 0.2500  plane waves:    4309
 k-point  53 :  -0.2500-0.3750 0.2500  plane waves:    4308
 k-point  54 :  -0.2500-0.2500 0.2500  plane waves:    4311
 k-point  55 :  -0.3750 0.3750 0.3750  plane waves:    4294
 k-point  56 :   0.5000 0.5000 0.3750  plane waves:    4302
 k-point  57 :  -0.3750 0.5000 0.3750  plane waves:    4322
 k-point  58 :  -0.3750-0.3750 0.3750  plane waves:    4330
 k-point  59 :   0.5000 0.5000 0.5000  plane waves:    4326

 maximum and minimum number of plane-waves per node :      2185     2111

 maximum number of plane-waves:      4330
 maximum index in each direction:
   IXMAX=   11   IYMAX=   11   IZMAX=   11
   IXMIN=  -11   IYMIN=  -11   IZMIN=  -11

 parallel 3D FFT for wavefunctions:
    minimum data exchange during FFTs selected (reduces bandwidth)
 parallel 3D FFT for charge:
    minimum data exchange during FFTs selected (reduces bandwidth)

 Broyden mixing: mesh for mixing (old mesh)
   NGX = 23   NGY = 23   NGZ = 23
  (NGX  = 96   NGY  = 96   NGZ  = 96)
  gives a total of  12167 points

 initial charge density was supplied:
 charge density of overlapping atoms calculated
 number of electron      76.0000000 magnetization
 keeping initial charge density in first step

 Maximum index for augmentation-charges        24309 (set IRDMAX)

 First call to EWALD:  gamma=   0.351
 Maximum number of real-space cells 3x 3x 3
 Maximum number of reciprocal cells 3x 3x 3

--------------------------------------- Iteration      1(   1)  ---------------------------------------

 eigenvalue-minimisations  :  5700
 total energy-change (2. order) : 0.7188131E+03  (-0.5106610E+04)
 number of electron      76.0000000 magnetization
 augmentation part       76.0000000 magnetization

 Free energy of the ion-electron system (eV)
  alpha Z        PSCENC =       374.54768767
  Ewald energy   TEWEN  =     -6275.40049063
  -Hartree energ DENC   =     -1746.90531168
  -exchange      EXHF   =         0.00000000
  -V(xc)+E(xc)   XCENC  =       330.94503413
  PAW double counting   =      6278.15209018    -6244.81064237
  entropy T*S    EENTRO =        -0.00024637
  eigenvalues    EBANDS =        62.34339344
  atomic energy  EATOM  =      7939.94160518
  free energy    TOTEN  =       718.81311955 eV

  energy without entropy =      718.81336592  energy(sigma->0) =      718.81324274

[...]

 eigenvalue-minimisations  :  6408
 total energy-change (2. order) :-0.8469518E+03  (-0.8266987E+03)
 number of electron      76.0000000 magnetization
 augmentation part       76.0000000 magnetization

[...]

 eigenvalue-minimisations  :     0
 total energy-change (2. order) :-0.3279638E-08  ( 0.2172873E-08)
 number of electron      76.0000002 magnetization
 augmentation part        9.4119345 magnetization

[...]

 eigenvalue-minimisations  :     0
 total energy-change (2. order) :-0.3468813E-08  ( 0.1296062E-08)
 number of electron      76.0000002 magnetization
 augmentation part        9.4119353 magnetization

[...]

 eigenvalue-minimisations  :     0
 total energy-change (2. order) : 0.4092726E-08  (-0.5482585E-08)
 number of electron      76.0000002 magnetization
 augmentation part        9.4119364 magnetization

[...]

--------------------------------------- Iteration      1(  47)  ---------------------------------------

 eigenvalue-minimisations  :     0
 total energy-change (2. order) :-0.2282832E-09  (-0.2635035E-10)
 number of electron      76.0000002 magnetization
 augmentation part        9.4119362 magnetization

 Free energy of the ion-electron system (eV)
  alpha Z        PSCENC =       374.54768767
  Ewald energy   TEWEN  =     -6275.40049063
  -Hartree energ DENC   =     -1675.49766112
  -exchange      EXHF   =         0.00000000
  -V(xc)+E(xc)   XCENC  =       338.82059263
  PAW double counting   =     11634.00596671   -11607.53726645
  entropy T*S    EENTRO =        -0.00106061
  eigenvalues    EBANDS =      -855.35690960
  atomic energy  EATOM  =      7939.94160518
  free energy    TOTEN  =      -126.47753620 eV

  energy without entropy =     -126.47647560  energy(sigma->0) =     -126.47700590

  average scaling for gradient   0.7879

 average (electrostatic) potential at core
  the test charge radii are     0.7672  1.0818  0.9892
  (the norm of the test charge is              1.0000)
       1 -25.2502       2 -25.2502       3 -25.2503       4 -25.2503       5 -77.8477
       6 -76.7840       7 -77.8477       8 -76.7840       9 -83.3433      10 -83.3433

 E-fermi :   9.4131     XC(G=0): -12.9461     alpha+bet :-16.8656

 Fermi energy:         9.4130878583

 k-point     1 :       0.0000    0.0000    0.0000
  band No.  band energies     occupation
      1     -53.7900      2.00000
      2     -53.7830      2.00000
      3     -53.2000      2.00000
      4     -53.1801      2.00000
      5     -28.0687      2.00000
      6     -27.8720      2.00000
      7     -27.2327      2.00000
      8     -27.2327      2.00000
      9     -27.1981      2.00000
     10     -27.1980      2.00000
     11     -27.0810      2.00000
     12     -27.0313      2.00000
     13     -26.3784      2.00000
     14     -26.3783      2.00000
     15     -26.3558      2.00000
     16     -26.3557      2.00000
     17      -3.5856      2.00000
     18      -0.1047      2.00000
     19      -0.1046      2.00000
     20       0.9537      2.00000
     21       2.5066      2.00000
     22       3.3715      2.00000
     23       4.1775      2.00000
     24       4.1775      2.00000
     25       4.7823      2.00000
     26       5.8403      2.00000
     27       6.2264      2.00000
     28       6.5784      2.00000
     29       6.5785      2.00000
     30       6.6269      2.00000
     31       6.8012      2.00000
     32       6.9673      2.00000
     33       6.9674      2.00000
     34       7.2880      2.00000
     35       8.1358      2.00000
     36       9.1208      2.00000
     37       9.1208      2.00000
     38       9.6018      0.00000
     39       9.9123      0.00000
     40       9.9127      0.00000
     41       9.9127      0.00000
     42      10.3547      0.00000
     43      10.7081      0.00000
     44      11.3701      0.00000
     45      11.3703      0.00000
     46      11.4628      0.00000
     47      11.5065      0.00000
     48      11.5377      0.00000

[...]

 k-point    59 :       0.5000    0.5000    0.5000
  band No.  band energies     occupation
      1     -53.7875      2.00000
      2     -53.7853      2.00000
      3     -53.2034      2.00000
      4     -53.1769      2.00000
      5     -28.0757      2.00000
      6     -27.8659      2.00000
      7     -27.2396      2.00000
      8     -27.2396      2.00000
      9     -27.1921      2.00000
     10     -27.1920      2.00000
     11     -27.0795      2.00000
     12     -27.0327      2.00000
     13     -26.3758      2.00000
     14     -26.3758      2.00000
     15     -26.3578      2.00000
     16     -26.3578      2.00000
     17      -1.7801      2.00000
     18      -1.5653      2.00000
     19       0.8795      2.00000
     20       0.8796      2.00000
     21       2.0947      2.00000
     22       2.0948      2.00000
     23       2.8857      2.00000
     24       3.6270      2.00000
     25       4.7599      2.00000
     26       4.8214      2.00000
     27       4.9795      2.00000
     28       5.0142      2.00000
     29       5.0142      2.00000
     30       5.7940      2.00000
     31       6.5813      2.00000
     32       7.4267      2.00000
     33       8.0674      2.00000
     34       8.0674      2.00000
     35       8.2617      2.00000
     36       9.0413      2.00000
     37       9.9956      0.00000
     38       9.9956      0.00000
     39      10.5483      0.00000
     40      10.7274      0.00000
     41      11.0034      0.00000
     42      11.6786      0.00000
     43      12.8977      0.00000
     44      12.8977      0.00000
     45      13.3650      0.00000
     46      13.9376      0.00000
     47      14.0097      0.00000
     48      14.1299      0.00000

 soft charge-density along one line, spin component           1
         0         1         2         3         4         5         6         7         8         9
 total charge-density along one line

------------------------ aborting loop because EDIFF is reached ----------------------------------------

  FREE ENERGIE OF THE ION-ELECTRON SYSTEM (eV)
  free  energy   TOTEN  =      -126.47753620 eV

  energy  without entropy=     -126.47647560  energy(sigma->0) =     -126.47700590

 writing wavefunctions