 vasp.6.2.0 18Jan21 (build Jan 05 2022 15:41:44) complex

 executed on             LinuxIFC date 2025.05.07  14:21:02

 INCAR:
   SYSTEM = routine with relax: pwdword
   ICHARG = 2
   NPAR = 6
   KPAR = 2
   NCORE = 2
   ADDGRID = T
   PREC = Acc
   ENCUT = 600
   METAGGA = R2SCAN
   LASPH = .TRUE.
   LMIXTAU = .FALSE.
   ALGO = A
   EDIFF = 1E-9
   NELM = 100
   NELMIN = 6
   IALGO = 38
   LREAL = F
   NSW = 0
   ISIF = -1
   ISMEAR = 0
   SIGMA = 0.02
   SYMPREC = 1E-4

 POTCAR:    PAW_PBE B 06Sep2000
 POTCAR:    PAW_PBE Mo_sv 02Feb2006
 POTCAR:    PAW_PBE Si 05Jan2001
|           W    W    AA    RRRRR   N    N  II  N    N   GGGG   !!!           |
|           W    W   A  A   R    R  NN   N  II  NN   N  G    G  !!!           |
|           W    W  A    A  R    R  N N  N  II  N N  N  G       !!!           |
|           W WW W  AAAAAA  RRRRR   N  N N  II  N  N N  G  GGG   !            |
|           WW  WW  A    A  R   R   N   NN  II  N   NN  G    G                |
|           W    W  A    A  R    R  N    N  II  N    N   GGGG   !!!           |
|     For optimal performance we recommend to set                             |
|       NCORE = 2 up to number-of-cores-per-socket                            |
|     This setting can greatly improve the performance of VASP for DFT.       |
|     The default, NCORE=1 might be grossly inefficient on modern             |
|     multi-core architectures or massively parallel machines. Do your        |
|     Unfortunately you need to use the default for GW and RPA                |
|     calculations (for HF NCORE is supported but not extensively tested      |
|     yet).                                                                   |

 POTCAR:    PAW_PBE B 06Sep2000
   VRHFIN =B: s2p1

   TITEL  = PAW_PBE B 06Sep2000
   POMASS =   10.811; ZVAL   =    3.000    mass and valenz
   ENMAX  =  318.614; ENMIN  =  238.960 eV

 POTCAR:    PAW_PBE Mo_sv 02Feb2006
   VRHFIN =Mo: 4p5s4d

   TITEL  = PAW_PBE Mo_sv 02Feb2006
   POMASS =   95.940; ZVAL   =   14.000    mass and valenz
   ENMAX  =  242.676; ENMIN  =  182.007 eV

 POTCAR:    PAW_PBE Si 05Jan2001
   VRHFIN =Si: s2p2

   TITEL  = PAW_PBE Si 05Jan2001
   POMASS =   28.085; ZVAL   =    4.000    mass and valenz
   ENMAX  =  245.345; ENMIN  =  184.009 eV

  PAW_PBE B 06Sep2000                   :
  PAW_PBE Mo_sv 02Feb2006               :
  PAW_PBE Si 05Jan2001                  :

 POSCAR: EA3
  positions in direct lattice

 METAGGA = R2SCA    LMAXTAU =  6    LMIXTAU =  F

 ion  position               nearest neighbor table
   1  0.696  0.196  0.892-  12 0.30   8 1.66   6 2.56
   2  0.304  0.804  0.108-  11 0.30   8 1.66   6 2.56
   3  0.196  0.304  0.500-   9 0.30   6 1.66   8 2.56
   4  0.804  0.696  0.500-  10 0.30   6 1.66   8 2.56
   5  0.250  0.250  0.000-  11 2.84  12 2.84   9 2.84   9 2.84  11 2.84  12 2.84  10 2.84  10 2.84

   6  0.000  0.500  0.500-   3 1.66   4 1.66   9 1.95  10 1.95  11 2.27  12 2.27   1 2.56   2 2.56

[...]

   8  0.500  0.000  0.500-   1 1.66   2 1.66  11 1.95  12 1.95   9 2.27  10 2.27   3 2.56   4 2.56

   9  0.231  0.269  0.500-   3 0.30   6 1.95   8 2.27   5 2.84   5 2.84   7 2.84   7 2.84  11 2.99
                            12 2.99  11 2.99  12 2.99
  10  0.769  0.731  0.500-   4 0.30   6 1.95   8 2.27   7 2.84   7 2.84   5 2.84   5 2.84  11 2.99
                            12 2.99  11 2.99  12 2.99
  11  0.269  0.769  0.037-   2 0.30   8 1.95   6 2.27   5 2.84   7 2.84   5 2.84   7 2.84  10 2.99
                             9 2.99   9 2.99  10 2.99
  12  0.731  0.231  0.963-   1 0.30   8 1.95   6 2.27   7 2.84   5 2.84   7 2.84   5 2.84  10 2.99
                             9 2.99   9 2.99  10 2.99

  LATTYP: Found a body centered tetragonal cell.
 ALAT       =     5.9677319584
 C/A-ratio  =     1.2729098378

  Lattice vectors:

 A1 = (   5.0770568620,   0.0000000000,  -2.5409600406)
 A2 = (  -1.9375264260,   4.6928134129,  -2.5409600406)
 A3 = (   0.0000000000,   0.0000000000,   5.6774100000)

Analysis of symmetry for initial positions (statically):
 Subroutine PRICEL returns:
 Original cell was already a primitive cell.

 Routine SETGRP: Setting up the symmetry group for a
 body centered tetragonal supercell.

 Subroutine GETGRP returns: Found 16 space group operations
 (whereof  8 operations were pure point group operations)
 out of a pool of 16 trial point group operations.

The static configuration has the point symmetry C_4h.
 The point group associated with its full space group is D_4h.

Analysis of symmetry for dynamics (positions and initial velocities):
 Subroutine PRICEL returns:
 Original cell was already a primitive cell.

 Routine SETGRP: Setting up the symmetry group for a
 body centered tetragonal supercell.

 Subroutine GETGRP returns: Found 16 space group operations
 (whereof  8 operations were pure point group operations)
 out of a pool of 16 trial point group operations.

The dynamic configuration has the point symmetry C_4h.
 The point group associated with its full space group is D_4h.

 Subroutine INISYM returns: Found 16 space group operations
 (whereof  8 operations are pure point group operations),
 and found     1 'primitive' translations

                                     Primitive cell

  volume of cell :     135.2682

  direct lattice vectors                    reciprocal lattice vectors
     5.077056862  0.000000000 -2.540960041     0.196964507  0.081320927  0.000000000
    -1.937526426  4.692813413 -2.540960041     0.000000000  0.213091788  0.000000000
     0.000000000  0.000000000  5.677410000     0.088152686  0.131766236  0.176136654

  length of vectors
     5.677410000  5.677410000  5.677410000     0.213091788  0.213091788  0.236975437

  position of ions in fractional coordinates (direct lattice)
     0.696100000  0.196100000  0.892210000
     0.303900000  0.803900000  0.107790000
     0.196100000  0.303900000  0.500000000
     0.803900000  0.696100000  0.500000000
     0.250000000  0.250000000  1.000000000
     1.000000000  0.500000000  0.500000000
     0.750000000  0.750000000  1.000000000
     0.500000000  0.000000000  0.500000000
     0.231260000  0.268740000  0.500000000
     0.768740000  0.731260000  0.500000000
     0.268740000  0.768740000  0.037480000
     0.731260000  0.231260000  0.962520000

  ion indices of the primitive-cell ions
   primitive index   ion index
                 1           1
                 2           2
                 3           3
                 4           4
                 5           5
                 6           6
                 7           7
                 8           8
                 9           9
                10          10
                11          11
                12          12

 KPOINTS: EA

Automatic generation of k-mesh.
 Grid dimensions read from file:
 generate k-points for:    8    8    8

 Generating k-lattice:

  Cartesian coordinates                     Fractional coordinates (reciprocal lattice)
     0.024620563  0.010165116  0.000000000     0.125000000 -0.000000000  0.000000000
     0.000000000  0.026636473  0.000000000     0.000000000  0.125000000  0.000000000
     0.011019086  0.016470779  0.022017082    -0.000000000 -0.000000000  0.125000000

  Length of vectors
     0.026636473  0.026636473  0.029621930

  Shift w.r.t. Gamma in fractional coordinates (k-lattice)
     0.000000000  0.000000000  0.000000000

 Subroutine IBZKPT returns following result:

 Found     59 irreducible k-points:

 Following reciprocal coordinates:
            Coordinates               Weight
  0.000000  0.000000  0.000000      1.000000
  0.125000  0.000000  0.000000      8.000000
  0.250000  0.000000  0.000000      8.000000
  0.375000  0.000000  0.000000      8.000000
  0.500000  0.000000  0.000000      4.000000
  0.125000  0.125000  0.000000      8.000000
  0.250000  0.125000  0.000000     16.000000
  0.375000  0.125000  0.000000     16.000000
  0.500000  0.125000  0.000000     16.000000
 -0.375000  0.125000  0.000000     16.000000
 -0.250000  0.125000  0.000000     16.000000
 -0.125000  0.125000  0.000000      4.000000
  0.250000  0.250000  0.000000      8.000000
  0.375000  0.250000  0.000000     16.000000
  0.500000  0.250000  0.000000     16.000000
 -0.375000  0.250000  0.000000     16.000000
 -0.250000  0.250000  0.000000      4.000000
  0.375000  0.375000  0.000000      8.000000
  0.500000  0.375000  0.000000     16.000000
 -0.375000  0.375000  0.000000      4.000000
  0.500000  0.500000  0.000000      2.000000
  0.125000  0.125000  0.125000      8.000000
  0.250000  0.125000  0.125000     16.000000
  0.375000  0.125000  0.125000      8.000000
 -0.125000  0.125000  0.125000      4.000000
  0.250000  0.250000  0.125000      8.000000
  0.375000  0.250000  0.125000     16.000000
  0.500000  0.250000  0.125000      8.000000
 -0.250000  0.250000  0.125000      8.000000
 -0.125000  0.250000  0.125000      8.000000
  0.375000  0.375000  0.125000      4.000000
 -0.375000  0.375000  0.125000      8.000000
 -0.250000  0.375000  0.125000     16.000000
 -0.125000  0.375000  0.125000      8.000000
  0.500000  0.500000  0.125000      4.000000
 -0.375000  0.500000  0.125000     16.000000
 -0.250000  0.500000  0.125000     16.000000
 -0.125000  0.500000  0.125000      8.000000
 -0.375000 -0.375000  0.125000      8.000000
 -0.250000 -0.375000  0.125000     16.000000
 -0.125000 -0.375000  0.125000      8.000000
 -0.250000 -0.250000  0.125000      8.000000
 -0.125000 -0.250000  0.125000      8.000000
 -0.125000 -0.125000  0.125000      2.000000
  0.250000  0.250000  0.250000      2.000000
 -0.250000  0.250000  0.250000      4.000000
 -0.375000  0.375000  0.250000      8.000000
 -0.250000  0.375000  0.250000      8.000000
  0.500000  0.500000  0.250000      4.000000
 -0.375000  0.500000  0.250000     16.000000
 -0.250000  0.500000  0.250000      8.000000
 -0.375000 -0.375000  0.250000      8.000000
 -0.250000 -0.375000  0.250000      8.000000
 -0.250000 -0.250000  0.250000      2.000000
 -0.375000  0.375000  0.375000      4.000000
  0.500000  0.500000  0.375000      4.000000
 -0.375000  0.500000  0.375000      8.000000
 -0.375000 -0.375000  0.375000      2.000000
  0.500000  0.500000  0.500000      1.000000

 Following cartesian coordinates:
            Coordinates               Weight
  0.000000  0.000000  0.000000      1.000000
  0.024621  0.010165  0.000000      8.000000
  0.049241  0.020330  0.000000      8.000000
  0.073862  0.030495  0.000000      8.000000
  0.098482  0.040660  0.000000      4.000000
  0.024621  0.036802  0.000000      8.000000
  0.049241  0.046967  0.000000     16.000000
  0.073862  0.057132  0.000000     16.000000
  0.098482  0.067297  0.000000     16.000000
 -0.073862 -0.003859  0.000000     16.000000
 -0.049241  0.006306  0.000000     16.000000
 -0.024621  0.016471  0.000000      4.000000
  0.049241  0.073603  0.000000      8.000000
  0.073862  0.083768  0.000000     16.000000
  0.098482  0.093933  0.000000     16.000000
 -0.073862  0.022778  0.000000     16.000000
 -0.049241  0.032943  0.000000      4.000000
  0.073862  0.110405  0.000000      8.000000
  0.098482  0.120570  0.000000     16.000000
 -0.073862  0.049414  0.000000      4.000000
[...]
  -0.02720296 -0.04066162  0.04403416       0.004
  -0.04080443  0.09882641  0.06605125       0.008
   0.13153951  0.19661870  0.06605125       0.008
  -0.04080443  0.12546288  0.06605125       0.016
  -0.04080443 -0.06099243  0.06605125       0.004
   0.14255860  0.21308948  0.08806833       0.002

 k-points in reciprocal lattice and weights: EA
   0.00000000  0.00000000  0.00000000       0.002
   0.12500000  0.00000000  0.00000000       0.016
   0.25000000  0.00000000  0.00000000       0.016
   0.37500000  0.00000000  0.00000000       0.016
   0.50000000  0.00000000  0.00000000       0.008
   0.12500000  0.12500000  0.00000000       0.016
   0.25000000  0.12500000  0.00000000       0.031
   0.37500000  0.12500000  0.00000000       0.031
   0.50000000  0.12500000  0.00000000       0.031
  -0.37500000  0.12500000  0.00000000       0.031
  -0.25000000  0.12500000  0.00000000       0.031
  -0.12500000  0.12500000  0.00000000       0.008
   0.25000000  0.25000000  0.00000000       0.016
   0.37500000  0.25000000  0.00000000       0.031
   0.50000000  0.25000000  0.00000000       0.031
  -0.37500000  0.25000000  0.00000000       0.031
  -0.25000000  0.25000000  0.00000000       0.008
   0.37500000  0.37500000  0.00000000       0.016
   0.50000000  0.37500000  0.00000000       0.031
  -0.37500000  0.37500000  0.00000000       0.008
   0.50000000  0.50000000  0.00000000       0.004
   0.12500000  0.12500000  0.12500000       0.016
   0.25000000  0.12500000  0.12500000       0.031
   0.37500000  0.12500000  0.12500000       0.016
  -0.12500000  0.12500000  0.12500000       0.008
   0.25000000  0.25000000  0.12500000       0.016
   0.37500000  0.25000000  0.12500000       0.031
   0.50000000  0.25000000  0.12500000       0.016
  -0.25000000  0.25000000  0.12500000       0.016
  -0.12500000  0.25000000  0.12500000       0.016
   0.37500000  0.37500000  0.12500000       0.008
  -0.37500000  0.37500000  0.12500000       0.016
  -0.25000000  0.37500000  0.12500000       0.031
  -0.12500000  0.37500000  0.12500000       0.016
   0.50000000  0.50000000  0.12500000       0.008
  -0.37500000  0.50000000  0.12500000       0.031
  -0.25000000  0.50000000  0.12500000       0.031
  -0.12500000  0.50000000  0.12500000       0.016
  -0.37500000 -0.37500000  0.12500000       0.016
  -0.25000000 -0.37500000  0.12500000       0.031
  -0.12500000 -0.37500000  0.12500000       0.016
  -0.25000000 -0.25000000  0.12500000       0.016
  -0.12500000 -0.25000000  0.12500000       0.016
  -0.12500000 -0.12500000  0.12500000       0.004
   0.25000000  0.25000000  0.25000000       0.004
  -0.25000000  0.25000000  0.25000000       0.008
  -0.37500000  0.37500000  0.25000000       0.016
  -0.25000000  0.37500000  0.25000000       0.016
   0.50000000  0.50000000  0.25000000       0.008
  -0.37500000  0.50000000  0.25000000       0.031
  -0.25000000  0.50000000  0.25000000       0.016
  -0.37500000 -0.37500000  0.25000000       0.016
  -0.25000000 -0.37500000  0.25000000       0.016
  -0.25000000 -0.25000000  0.25000000       0.004
  -0.37500000  0.37500000  0.37500000       0.008
   0.50000000  0.50000000  0.37500000       0.008
  -0.37500000  0.50000000  0.37500000       0.016
  -0.37500000 -0.37500000  0.37500000       0.004
   0.50000000  0.50000000  0.50000000       0.002

 position of ions in fractional coordinates (direct lattice)
   0.69610000  0.19610000  0.89221000
   0.30390000  0.80390000  0.10779000
   0.19610000  0.30390000  0.50000000
   0.80390000  0.69610000  0.50000000
   0.25000000  0.25000000  0.00000000
   0.00000000  0.50000000  0.50000000
   0.75000000  0.75000000  0.00000000
   0.50000000  0.00000000  0.50000000
   0.23126000  0.26874000  0.50000000
   0.76874000  0.73126000  0.50000000
   0.26874000  0.76874000  0.03748000
   0.73126000  0.23126000  0.96252000

 position of ions in cartesian coordinates  (Angst):
   3.15419035  0.92026071  2.79839743
  -0.01465991  3.77255270 -2.20290751
   0.40679657  1.42614600  1.56822498
   2.73273387  3.26666742 -0.97273506
   0.78488261  1.17320335 -1.27048002
  -0.96876321  2.34640671  1.56822498
   2.35464783  3.51961006 -3.81144006
   2.53852843  0.00000000  1.56822498
   0.65342932  1.26114668  1.56822498
   2.48610112  3.43166674 -0.97273506
  -0.12504580  3.60755338 -2.42340590
   3.26457624  1.08526003  3.01889581

 k-point   1 :   0.0000 0.0000 0.0000  plane waves:    4547
 k-point   2 :   0.1250 0.0000 0.0000  plane waves:    4516
 k-point   3 :   0.2500 0.0000 0.0000  plane waves:    4507
 k-point   4 :   0.3750 0.0000 0.0000  plane waves:    4517
 k-point   5 :   0.5000 0.0000 0.0000  plane waves:    4530
 k-point   6 :   0.1250 0.1250 0.0000  plane waves:    4513
 k-point   7 :   0.2500 0.1250 0.0000  plane waves:    4509
 k-point   8 :   0.3750 0.1250 0.0000  plane waves:    4514
 k-point   9 :   0.5000 0.1250 0.0000  plane waves:    4521
 k-point  10 :  -0.3750 0.1250 0.0000  plane waves:    4524
 k-point  11 :  -0.2500 0.1250 0.0000  plane waves:    4515
 k-point  12 :  -0.1250 0.1250 0.0000  plane waves:    4535
 k-point  13 :   0.2500 0.2500 0.0000  plane waves:    4532
 k-point  14 :   0.3750 0.2500 0.0000  plane waves:    4515
 k-point  15 :   0.5000 0.2500 0.0000  plane waves:    4519
 k-point  16 :  -0.3750 0.2500 0.0000  plane waves:    4521
 k-point  17 :  -0.2500 0.2500 0.0000  plane waves:    4523
 k-point  18 :   0.3750 0.3750 0.0000  plane waves:    4513
 k-point  19 :   0.5000 0.3750 0.0000  plane waves:    4516
 k-point  20 :  -0.3750 0.3750 0.0000  plane waves:    4499
 k-point  21 :   0.5000 0.5000 0.0000  plane waves:    4512
 k-point  22 :   0.1250 0.1250 0.1250  plane waves:    4527
 k-point  23 :   0.2500 0.1250 0.1250  plane waves:    4526
 k-point  24 :   0.3750 0.1250 0.1250  plane waves:    4526
 k-point  25 :  -0.1250 0.1250 0.1250  plane waves:    4512
 k-point  26 :   0.2500 0.2500 0.1250  plane waves:    4514
 k-point  27 :   0.3750 0.2500 0.1250  plane waves:    4518
 k-point  28 :   0.5000 0.2500 0.1250  plane waves:    4525
 k-point  29 :  -0.2500 0.2500 0.1250  plane waves:    4517
 k-point  30 :  -0.1250 0.2500 0.1250  plane waves:    4511
 k-point  31 :   0.3750 0.3750 0.1250  plane waves:    4518
 k-point  32 :  -0.3750 0.3750 0.1250  plane waves:    4524
 k-point  33 :  -0.2500 0.3750 0.1250  plane waves:    4517
 k-point  34 :  -0.1250 0.3750 0.1250  plane waves:    4518
 k-point  35 :   0.5000 0.5000 0.1250  plane waves:    4538
 k-point  36 :  -0.3750 0.5000 0.1250  plane waves:    4523
 k-point  37 :  -0.2500 0.5000 0.1250  plane waves:    4509
 k-point  38 :  -0.1250 0.5000 0.1250  plane waves:    4515
 k-point  39 :  -0.3750-0.3750 0.1250  plane waves:    4508
 k-point  40 :  -0.2500-0.3750 0.1250  plane waves:    4510
 k-point  41 :  -0.1250-0.3750 0.1250  plane waves:    4505
 k-point  42 :  -0.2500-0.2500 0.1250  plane waves:    4498
 k-point  43 :  -0.1250-0.2500 0.1250  plane waves:    4513
 k-point  44 :  -0.1250-0.1250 0.1250  plane waves:    4527
 k-point  45 :   0.2500 0.2500 0.2500  plane waves:    4516
 k-point  46 :  -0.2500 0.2500 0.2500  plane waves:    4514
 k-point  47 :  -0.3750 0.3750 0.2500  plane waves:    4514
 k-point  48 :  -0.2500 0.3750 0.2500  plane waves:    4508
 k-point  49 :   0.5000 0.5000 0.2500  plane waves:    4496
 k-point  50 :  -0.3750 0.5000 0.2500  plane waves:    4511
 k-point  51 :  -0.2500 0.5000 0.2500  plane waves:    4507
 k-point  52 :  -0.3750-0.3750 0.2500  plane waves:    4509
 k-point  53 :  -0.2500-0.3750 0.2500  plane waves:    4501
 k-point  54 :  -0.2500-0.2500 0.2500  plane waves:    4503
 k-point  55 :  -0.3750 0.3750 0.3750  plane waves:    4512
 k-point  56 :   0.5000 0.5000 0.3750  plane waves:    4494
 k-point  57 :  -0.3750 0.5000 0.3750  plane waves:    4492
 k-point  58 :  -0.3750-0.3750 0.3750  plane waves:    4479
 k-point  59 :   0.5000 0.5000 0.5000  plane waves:    4496

 maximum and minimum number of plane-waves per node :      2278     2230

 maximum number of plane-waves:      4547
 maximum index in each direction:
   IXMAX=   11   IYMAX=   11   IZMAX=   11
   IXMIN=  -11   IYMIN=  -11   IZMIN=  -11

 parallel 3D FFT for wavefunctions:
    minimum data exchange during FFTs selected (reduces bandwidth)
 parallel 3D FFT for charge:
    minimum data exchange during FFTs selected (reduces bandwidth)

 Broyden mixing: mesh for mixing (old mesh)
   NGX = 23   NGY = 23   NGZ = 23
  (NGX  = 96   NGY  = 96   NGZ  = 96)
  gives a total of  12167 points

 initial charge density was supplied:
 charge density of overlapping atoms calculated
 number of electron      84.0000000 magnetization
 keeping initial charge density in first step

 Maximum index for augmentation-charges        23229 (set IRDMAX)

 First call to EWALD:  gamma=   0.345
 Maximum number of real-space cells 3x 3x 3
 Maximum number of reciprocal cells 3x 3x 3

--------------------------------------- Iteration      1(   1)  ---------------------------------------

 eigenvalue-minimisations  :  6396
 total energy-change (2. order) : 0.2278110E+04  (-0.5930427E+04)
 number of electron      84.0000000 magnetization
 augmentation part       84.0000000 magnetization

 Free energy of the ion-electron system (eV)
  alpha Z        PSCENC =       404.83673589
  Ewald energy   TEWEN  =     -4822.92631279
  -Hartree energ DENC   =     -1838.74281060
  -exchange      EXHF   =         0.00000000
  -V(xc)+E(xc)   XCENC  =       329.95625568
  PAW double counting   =      6444.67582193    -6389.50304870
  entropy T*S    EENTRO =        -0.00095163
  eigenvalues    EBANDS =         3.73994831
  atomic energy  EATOM  =      8146.07472429
  free energy    TOTEN  =      2278.11036236 eV

  energy without entropy =     2278.11131399  energy(sigma->0) =     2278.11083818

[...]

 eigenvalue-minimisations  :  7458
 total energy-change (2. order) :-0.1178516E+04  (-0.1156767E+04)
 number of electron      84.0000000 magnetization
 augmentation part       84.0000000 magnetization

[...]

 eigenvalue-minimisations  :     0
 total energy-change (2. order) : 0.7450581E-08  ( 0.3732411E-07)
 number of electron      83.9999973 magnetization
 augmentation part       11.2052487 magnetization

[...]

 eigenvalue-minimisations  :     0
 total energy-change (2. order) :-0.8568168E-07  ( 0.4158582E-10)
 number of electron      83.9999973 magnetization
 augmentation part       11.2052398 magnetization

[...]

 eigenvalue-minimisations  :     0
 total energy-change (2. order) :-0.1490116E-07  ( 0.3171263E-11)
 number of electron      83.9999973 magnetization
 augmentation part       11.2052412 magnetization

[...]

 eigenvalue-minimisations  :     0
 total energy-change (2. order) :-0.3725290E-08  (-0.3911271E-12)
 number of electron      83.9999973 magnetization
 augmentation part       11.2052410 magnetization

[...]

 eigenvalue-minimisations  :     0
 total energy-change (2. order) : 0.1862645E-07  ( 0.5701910E-11)
 number of electron      83.9999973 magnetization
 augmentation part       11.2052409 magnetization

[...]

--------------------------------------- Iteration      1(  84)  ---------------------------------------

 eigenvalue-minimisations  :     0
 total energy-change (2. order) : 0.0000000E+00  (-0.6817106E-12)
 number of electron      83.9999973 magnetization
 augmentation part       11.2052409 magnetization

 Free energy of the ion-electron system (eV)
  alpha Z        PSCENC =       404.83673589
  Ewald energy   TEWEN  =     -4822.92631279
  -Hartree energ DENC   =     -1967.56020494
  -exchange      EXHF   =         0.00000000
  -V(xc)+E(xc)   XCENC  =       351.57461281
  PAW double counting   =  23433527.53571722-23433496.19078359
  entropy T*S    EENTRO =        -0.00244668
  eigenvalues    EBANDS =      -825.30590934
  atomic energy  EATOM  =      8146.07472429
  free energy    TOTEN  =      1318.03613286 eV

  energy without entropy =     1318.03857954  energy(sigma->0) =     1318.03735620

  average scaling for gradient   1.2936

 average (electrostatic) potential at core
  the test charge radii are     0.7672  1.0818  0.9892
  (the norm of the test charge is              1.0000)
       1 -78.1308       2 -78.1296       3 -78.1269       4 -78.1269       5 -76.6981
       6 -76.6504       7 -76.6977       8 -76.6492       9 -88.4410      10 -88.4407
      11 -88.4408      12 -88.4413

 E-fermi :  10.1366     XC(G=0): -12.6284     alpha+bet :-19.6137

 Fermi energy:        10.1366053085

 k-point     1 :       0.0000    0.0000    0.0000
  band No.  band energies     occupation
      1     -53.0758      2.00000
      2     -53.0724      2.00000
      3     -52.7243      2.00000
      4     -52.7221      2.00000
      5     -27.8321      2.00000
      6     -27.8305      2.00000
      7     -26.5958      2.00000
      8     -26.5950      2.00000
      9     -26.1805      2.00000
     10     -26.1777      2.00000
     11     -26.1775      2.00000
     12     -26.1690      2.00000
     13     -26.1663      2.00000
     14     -26.1662      2.00000
     15     -26.1100      2.00000
     16     -26.0481      2.00000
     17      -1.0065      2.00000
     18      -0.8227      2.00000
     19      -0.5732      2.00000
     20      -0.1072      2.00000
     21       0.5573      2.00000
     22       0.5577      2.00000
     23       1.4390      2.00000
     24       1.4392      2.00000
     25       1.6402      2.00000
     26       2.2054      2.00000
     27       2.7125      2.00000
     28       2.8075      2.00000
     29       3.6548      2.00000
     30       3.6550      2.00000
     31       6.0871      2.00000
     32       6.0883      2.00000
     33       6.4099      2.00000
     34       7.3501      2.00000
     35       7.3504      2.00000
     36       7.9965      2.00000
     37       8.3530      2.00000
     38       8.5590      2.00000
     39       9.2628      2.00000
     40       9.8827      2.00000
     41      10.0104      2.00000
     42      10.0105      2.00000
     43      10.3969      0.00000
     44      10.7715      0.00000
     45      10.9672      0.00000
     46      11.5037      0.00000
     47      11.8880      0.00000
     48      12.2479      0.00000
     49      12.2480      0.00000
     50      12.9120      0.00000
     51      13.0144      0.00000
     52      13.2227      0.00000
     53      14.3567      0.00000
     54      14.5307      0.00000

[...]

 k-point    59 :       0.5000    0.5000    0.5000
  band No.  band energies     occupation
      1     -53.0745      2.00000
      2     -53.0733      2.00000
      3     -52.7239      2.00000
      4     -52.7227      2.00000
      5     -27.8322      2.00000
      6     -27.8306      2.00000
      7     -26.5994      2.00000
      8     -26.5986      2.00000
      9     -26.1823      2.00000
     10     -26.1728      2.00000
     11     -26.1726      2.00000
     12     -26.1673      2.00000
     13     -26.1671      2.00000
     14     -26.1470      2.00000
     15     -26.1120      2.00000
     16     -26.0667      2.00000
     17      -1.3092      2.00000
     18      -0.7393      2.00000
     19      -0.6494      2.00000
     20       0.7712      2.00000
     21       0.9056      2.00000
     22       0.9061      2.00000
     23       1.0000      2.00000
     24       1.2591      2.00000
     25       1.2593      2.00000
     26       1.6839      2.00000
     27       2.0652      2.00000
     28       3.4317      2.00000
     29       3.4568      2.00000
     30       3.4571      2.00000
     31       6.2052      2.00000
     32       6.2064      2.00000
     33       6.7556      2.00000
     34       7.2730      2.00000
     35       7.2734      2.00000
     36       8.7385      2.00000
     37       8.8599      2.00000
     38       9.3879      2.00000
     39       9.3919      2.00000
     40       9.6832      2.00000
     41       9.9682      2.00000
     42      10.2799      0.00000
     43      10.2800      0.00000
     44      10.7402      0.00000
     45      10.7404      0.00000
     46      10.9148      0.00000
     47      11.6052      0.00000
     48      11.6212      0.00000
     49      11.9775      0.00000
     50      12.7838      0.00000
     51      12.7838      0.00000
     52      13.2702      0.00000
     53      13.5195      0.00000
     54      14.9938      0.00000

 soft charge-density along one line, spin component           1
         0         1         2         3         4         5         6         7         8         9
 total charge-density along one line

------------------------ aborting loop because EDIFF is reached ----------------------------------------

  FREE ENERGIE OF THE ION-ELECTRON SYSTEM (eV)
  free  energy   TOTEN  =      1318.03613286 eV

  energy  without entropy=     1318.03857954  energy(sigma->0) =     1318.03735620

 writing wavefunctions