 vasp.6.2.0 18Jan21 (build Jan 05 2022 15:41:44) complex

 executed on             LinuxIFC date 2025.05.07  15:57:13

 INCAR:
   SYSTEM = routine with relax: pwdword
   ICHARG = 2
   NPAR = 6
   KPAR = 2
   NCORE = 2
   ADDGRID = T
   PREC = Acc
   ENCUT = 600
   METAGGA = R2SCAN
   LASPH = .TRUE.
   LMIXTAU = .FALSE.
   ALGO = A
   EDIFF = 1E-9
   NELM = 100
   NELMIN = 6
   IALGO = 38
   LREAL = F
   NSW = 0
   ISIF = -1
   ISMEAR = 0
   SIGMA = 0.02
   SYMPREC = 1E-4

 POTCAR:    PAW_PBE B 06Sep2000
 POTCAR:    PAW_PBE Mo_sv 02Feb2006
 POTCAR:    PAW_PBE Si 05Jan2001
|           W    W    AA    RRRRR   N    N  II  N    N   GGGG   !!!           |
|           W    W   A  A   R    R  NN   N  II  NN   N  G    G  !!!           |
|           W    W  A    A  R    R  N N  N  II  N N  N  G       !!!           |
|           W WW W  AAAAAA  RRRRR   N  N N  II  N  N N  G  GGG   !            |
|           WW  WW  A    A  R   R   N   NN  II  N   NN  G    G                |
|           W    W  A    A  R    R  N    N  II  N    N   GGGG   !!!           |
|     For optimal performance we recommend to set                             |
|       NCORE = 2 up to number-of-cores-per-socket                            |
|     This setting can greatly improve the performance of VASP for DFT.       |
|     The default, NCORE=1 might be grossly inefficient on modern             |
|     multi-core architectures or massively parallel machines. Do your        |
|     Unfortunately you need to use the default for GW and RPA                |
|     calculations (for HF NCORE is supported but not extensively tested      |
|     yet).                                                                   |

 POTCAR:    PAW_PBE B 06Sep2000
   VRHFIN =B: s2p1

   TITEL  = PAW_PBE B 06Sep2000
   POMASS =   10.811; ZVAL   =    3.000    mass and valenz
   ENMAX  =  318.614; ENMIN  =  238.960 eV

 POTCAR:    PAW_PBE Mo_sv 02Feb2006
   VRHFIN =Mo: 4p5s4d

   TITEL  = PAW_PBE Mo_sv 02Feb2006
   POMASS =   95.940; ZVAL   =   14.000    mass and valenz
   ENMAX  =  242.676; ENMIN  =  182.007 eV

 POTCAR:    PAW_PBE Si 05Jan2001
   VRHFIN =Si: s2p2

   TITEL  = PAW_PBE Si 05Jan2001
   POMASS =   28.085; ZVAL   =    4.000    mass and valenz
   ENMAX  =  245.345; ENMIN  =  184.009 eV

  PAW_PBE B 06Sep2000                   :
  PAW_PBE Mo_sv 02Feb2006               :
  PAW_PBE Si 05Jan2001                  :

 POSCAR: EA65
  positions in direct lattice

 METAGGA = R2SCA    LMAXTAU =  6    LMIXTAU =  F

 ion  position               nearest neighbor table
   1  0.246  0.254  0.500-  10 0.22  12 2.01  11 2.07   7 2.73   5 2.73   6 2.78   6 2.78   8 2.78
                             8 2.78
   2  0.754  0.746  0.500-   9 0.22  12 2.01  11 2.07   5 2.73   7 2.73   8 2.78   8 2.78   6 2.78
                             6 2.78
   3  0.254  0.754  0.007-   5 0.22  11 2.01  12 2.07   9 2.73  10 2.73   8 2.78   6 2.78   8 2.78
                             6 2.78
   4  0.746  0.246  0.993-   7 0.22  11 2.01  12 2.07  10 2.73   9 2.73   6 2.78   8 2.78   6 2.78
                             8 2.78
   5  0.227  0.727  0.953-   3 0.22  12 1.85  11 2.23   2 2.73   1 2.73   8 2.78   6 2.78   6 2.78
                             8 2.78  10 2.90   9 2.90  10 2.90   9 2.90
   6  0.250  0.250  0.000-   4 2.78   3 2.78   1 2.78   1 2.78   2 2.78   2 2.78   4 2.78   3 2.78
                             7 2.78   5 2.78  10 2.78  10 2.78   7 2.78   5 2.78   9 2.78   9 2.78
   7  0.773  0.273  0.047-   4 0.22  12 1.85  11 2.23   1 2.73   2 2.73   6 2.78   8 2.78   8 2.78
                             6 2.78   9 2.90  10 2.90   9 2.90  10 2.90
   8  0.750  0.750  0.000-   3 2.78   4 2.78   2 2.78   2 2.78   1 2.78   1 2.78   3 2.78   4 2.78
                             7 2.78   5 2.78   9 2.78   9 2.78   5 2.78   7 2.78  10 2.78  10 2.78
   9  0.727  0.773  0.500-   2 0.22  11 1.85  12 2.23   3 2.73   4 2.73   8 2.78   8 2.78   6 2.78
                             6 2.78   7 2.90   5 2.90   5 2.90   7 2.90
  10  0.273  0.227  0.500-   1 0.22  11 1.85  12 2.23   4 2.73   3 2.73   6 2.78   6 2.78   8 2.78
                             8 2.78   5 2.90   7 2.90   7 2.90   5 2.90
  11  0.500  0.000  0.500-   9 1.85  10 1.85   3 2.01   4 2.01   1 2.07   2 2.07   7 2.23   5 2.23

  12  0.000  0.500  0.500-   5 1.85   7 1.85   1 2.01   2 2.01   3 2.07   4 2.07  10 2.23   9 2.23

  LATTYP: Found a body centered tetragonal cell.
 ALAT       =     5.7745449364
 C/A-ratio  =     1.3029017203

  Lattice vectors:

 A1 = (   4.9322511967,   0.0000000000,  -2.5488869841)
 A2 = (  -1.8283715141,   4.5808470258,  -2.5488869841)
 A3 = (   0.0000000000,   0.0000000000,   5.5519300000)

Analysis of symmetry for initial positions (statically):
 Subroutine PRICEL returns:
 Original cell was already a primitive cell.

 Routine SETGRP: Setting up the symmetry group for a
 body centered tetragonal supercell.

 Subroutine GETGRP returns: Found 16 space group operations
 (whereof  8 operations were pure point group operations)
 out of a pool of 16 trial point group operations.

The static configuration has the point symmetry C_4h.
 The point group associated with its full space group is D_4h.

Analysis of symmetry for dynamics (positions and initial velocities):
 Subroutine PRICEL returns:
 Original cell was already a primitive cell.

 Routine SETGRP: Setting up the symmetry group for a
 body centered tetragonal supercell.

 Subroutine GETGRP returns: Found 16 space group operations
 (whereof  8 operations were pure point group operations)
 out of a pool of 16 trial point group operations.

The dynamic configuration has the point symmetry C_4h.
 The point group associated with its full space group is D_4h.

 Subroutine INISYM returns: Found 16 space group operations
 (whereof  8 operations are pure point group operations),
 and found     1 'primitive' translations

                                     Primitive cell

  volume of cell :     125.4397

  direct lattice vectors                    reciprocal lattice vectors
     4.932251197  0.000000000 -2.548886984     0.202747176  0.080923279  0.000000000
    -1.828371514  4.580847026 -2.548886984     0.000000000  0.218300239  0.000000000
     0.000000000  0.000000000  5.551930000     0.093081079  0.137373297  0.180117545

  length of vectors
     5.551930000  5.551930000  5.551930000     0.218300239  0.218300239  0.244903736

  position of ions in fractional coordinates (direct lattice)
     0.246350000  0.253650000  0.500000000
     0.753650000  0.746350000  0.500000000
     0.253650000  0.753650000  0.007310000
     0.746350000  0.246350000  0.992690000
     0.226610000  0.726610000  0.953230000
     0.250000000  0.250000000  1.000000000
     0.773390000  0.273390000  0.046770000
     0.750000000  0.750000000  1.000000000
     0.726610000  0.773390000  0.500000000
     0.273390000  0.226610000  0.500000000
     0.500000000  0.000000000  0.500000000
     0.000000000  0.500000000  0.500000000

  ion indices of the primitive-cell ions
   primitive index   ion index
                 1           1
                 2           2
                 3           3
                 4           4
                 5           5
                 6           6
                 7           7
                 8           8
                 9           9
                10          10
                11          11
                12          12

 KPOINTS: EA

Automatic generation of k-mesh.
 Grid dimensions read from file:
 generate k-points for:    8    8    9

 Generating k-lattice:

  Cartesian coordinates                     Fractional coordinates (reciprocal lattice)
     0.025343397  0.010115410  0.000000000     0.125000000  0.000000000  0.000000000
     0.000000000  0.027287530  0.000000000     0.000000000  0.125000000  0.000000000
     0.010342342  0.015263700  0.020013061     0.000000000  0.000000000  0.111111111

  Length of vectors
     0.027287530  0.027287530  0.027211526

  Shift w.r.t. Gamma in fractional coordinates (k-lattice)
     0.000000000  0.000000000  0.000000000

 WARNING: IBZKPT: internal override: KBLOWUP is changed to .FALSE.
      ... skipping the blow-up phase ...

 Subroutine IBZKPT returns following result:

 Found    165 irreducible k-points:

 Following reciprocal coordinates:
            Coordinates               Weight
  0.000000  0.000000  0.000000      1.000000
  0.125000 -0.000000  0.000000      4.000000
  0.250000 -0.000000  0.000000      4.000000
  0.375000 -0.000000  0.000000      4.000000
  0.500000 -0.000000  0.000000      2.000000
  0.125000  0.125000  0.000000      2.000000
  0.250000  0.125000  0.000000      4.000000
  0.375000  0.125000  0.000000      4.000000
  0.500000  0.125000  0.000000      4.000000
 -0.375000  0.125000  0.000000      4.000000
 -0.250000  0.125000  0.000000      4.000000
 -0.125000  0.125000  0.000000      2.000000
  0.250000  0.250000  0.000000      2.000000
  0.375000  0.250000  0.000000      4.000000
  0.500000  0.250000  0.000000      4.000000
 -0.375000  0.250000  0.000000      4.000000
 -0.250000  0.250000  0.000000      2.000000
  0.375000  0.375000  0.000000      2.000000
  0.500000  0.375000  0.000000      4.000000
 -0.375000  0.375000  0.000000      2.000000
  0.500000  0.500000  0.000000      1.000000
  0.000000  0.000000  0.111111      2.000000
  0.125000  0.000000  0.111111      4.000000
  0.250000  0.000000  0.111111      4.000000
  0.375000 -0.000000  0.111111      4.000000
  0.500000  0.000000  0.111111      4.000000
 -0.375000  0.000000  0.111111      4.000000
 -0.250000  0.000000  0.111111      4.000000
 -0.125000  0.000000  0.111111      4.000000
  0.125000  0.125000  0.111111      2.000000
  0.250000  0.125000  0.111111      4.000000
  0.375000  0.125000  0.111111      4.000000
  0.500000  0.125000  0.111111      4.000000
 -0.375000  0.125000  0.111111      4.000000
 -0.250000  0.125000  0.111111      4.000000
 -0.125000  0.125000  0.111111      4.000000
  0.250000  0.250000  0.111111      2.000000
  0.375000  0.250000  0.111111      4.000000
  0.500000  0.250000  0.111111      4.000000
 -0.375000  0.250000  0.111111      4.000000
 -0.250000  0.250000  0.111111      4.000000
 -0.125000  0.250000  0.111111      4.000000
  0.375000  0.375000  0.111111      2.000000
  0.500000  0.375000  0.111111      4.000000
 -0.375000  0.375000  0.111111      4.000000
 -0.250000  0.375000  0.111111      4.000000
 -0.125000  0.375000  0.111111      4.000000
  0.500000  0.500000  0.111111      2.000000
 -0.375000  0.500000  0.111111      4.000000
 -0.250000  0.500000  0.111111      4.000000
 -0.125000  0.500000  0.111111      4.000000
 -0.375000 -0.375000  0.111111      2.000000
 -0.250000 -0.375000  0.111111      4.000000
 -0.125000 -0.375000  0.111111      4.000000
 -0.250000 -0.250000  0.111111      2.000000
 -0.125000 -0.250000  0.111111      4.000000
 -0.125000 -0.125000  0.111111      2.000000
 -0.000000 -0.000000  0.222222      2.000000
  0.125000  0.000000  0.222222      4.000000
  0.250000  0.000000  0.222222      4.000000
[...]
  0.375000  0.375000  0.444444      2.000000
  0.500000  0.375000  0.444444      4.000000
 -0.375000  0.375000  0.444444      4.000000
[...]
  -0.37500000  0.12500000  0.11111111       0.007
  -0.25000000  0.12500000  0.11111111       0.007
  -0.12500000  0.12500000  0.11111111       0.007
   0.25000000  0.25000000  0.11111111       0.003
   0.37500000  0.25000000  0.11111111       0.007
   0.50000000  0.25000000  0.11111111       0.007
  -0.37500000  0.25000000  0.11111111       0.007
  -0.25000000  0.25000000  0.11111111       0.007
  -0.12500000  0.25000000  0.11111111       0.007
   0.37500000  0.37500000  0.11111111       0.003
   0.50000000  0.37500000  0.11111111       0.007
  -0.37500000  0.37500000  0.11111111       0.007
  -0.25000000  0.37500000  0.11111111       0.007
  -0.12500000  0.37500000  0.11111111       0.007
   0.50000000  0.50000000  0.11111111       0.003
  -0.37500000  0.50000000  0.11111111       0.007
  -0.25000000  0.50000000  0.11111111       0.007
  -0.12500000  0.50000000  0.11111111       0.007
  -0.37500000 -0.37500000  0.11111111       0.003
  -0.25000000 -0.37500000  0.11111111       0.007
  -0.12500000 -0.37500000  0.11111111       0.007
  -0.25000000 -0.25000000  0.11111111       0.003
  -0.12500000 -0.25000000  0.11111111       0.007
  -0.12500000 -0.12500000  0.11111111       0.003
  -0.00000000 -0.00000000  0.22222222       0.003
   0.12500000  0.00000000  0.22222222       0.007
   0.25000000  0.00000000  0.22222222       0.007
[...]
   0.37500000  0.37500000  0.44444444       0.003
   0.50000000  0.37500000  0.44444444       0.007
  -0.37500000  0.37500000  0.44444444       0.007
  -0.25000000  0.37500000  0.44444444       0.007
  -0.12500000  0.37500000  0.44444444       0.007
   0.50000000  0.50000000  0.44444444       0.003
  -0.37500000  0.50000000  0.44444444       0.007
  -0.25000000  0.50000000  0.44444444       0.007
  -0.12500000  0.50000000  0.44444444       0.007
  -0.37500000 -0.37500000  0.44444444       0.003
  -0.25000000 -0.37500000  0.44444444       0.007
  -0.12500000 -0.37500000  0.44444444       0.007
  -0.25000000 -0.25000000  0.44444444       0.003
  -0.12500000 -0.25000000  0.44444444       0.007
  -0.12500000 -0.12500000  0.44444444       0.003

 position of ions in fractional coordinates (direct lattice)
   0.24635000  0.25365000  0.50000000
   0.75365000  0.74635000  0.50000000
   0.25365000  0.75365000  0.00731000
   0.74635000  0.24635000  0.99269000
   0.22661000  0.72661000  0.95323000
   0.25000000  0.25000000  0.00000000
   0.77339000  0.27339000  0.04677000
   0.75000000  0.75000000  0.00000000
   0.72661000  0.77339000  0.50000000
   0.27339000  0.22661000  0.50000000
   0.50000000  0.00000000  0.50000000
   0.00000000  0.50000000  0.50000000

 position of ions in cartesian coordinates  (Angst):
   0.75129365  1.16193185  1.50152151
   2.35258603  3.41891518 -1.04736548
  -0.12688668  3.45235536 -2.52690925
   3.23076636  1.12849166  2.98106528
  -0.21081558  3.32848926  2.86261618
   0.77596992  1.14521176 -1.27444349
   3.31469526  1.25235777 -2.40846015
   2.32790976  3.43563527 -3.82333048
   2.16977880  3.54278128 -1.04736548
   0.93410089  1.03806574  1.50152151
   2.46612560  0.00000000  1.50152151
  -0.91418576  2.29042351  1.50152151

 k-point   1 :   0.0000 0.0000 0.0000  plane waves:    4211
 k-point   2 :   0.1250-0.0000 0.0000  plane waves:    4175
 k-point   3 :   0.2500-0.0000 0.0000  plane waves:    4185
 k-point   4 :   0.3750-0.0000 0.0000  plane waves:    4186
 k-point   5 :   0.5000-0.0000 0.0000  plane waves:    4162
 k-point   6 :   0.1250 0.1250 0.0000  plane waves:    4183
 k-point   7 :   0.2500 0.1250 0.0000  plane waves:    4193
 k-point   8 :   0.3750 0.1250 0.0000  plane waves:    4184
 k-point   9 :   0.5000 0.1250 0.0000  plane waves:    4182
 k-point  10 :  -0.3750 0.1250 0.0000  plane waves:    4182
 k-point  11 :  -0.2500 0.1250 0.0000  plane waves:    4180
 k-point  12 :  -0.1250 0.1250 0.0000  plane waves:    4163
 k-point  13 :   0.2500 0.2500 0.0000  plane waves:    4196
 k-point  14 :   0.3750 0.2500 0.0000  plane waves:    4186
 k-point  15 :   0.5000 0.2500 0.0000  plane waves:    4175
 k-point  16 :  -0.3750 0.2500 0.0000  plane waves:    4182
 k-point  17 :  -0.2500 0.2500 0.0000  plane waves:    4178
 k-point  18 :   0.3750 0.3750 0.0000  plane waves:    4179
 k-point  19 :   0.5000 0.3750 0.0000  plane waves:    4185
 k-point  20 :  -0.3750 0.3750 0.0000  plane waves:    4166
 k-point  21 :   0.5000 0.5000 0.0000  plane waves:    4172
 k-point  22 :   0.0000 0.0000 0.1111  plane waves:    4155
 k-point  23 :   0.1250 0.0000 0.1111  plane waves:    4171
 k-point  24 :   0.2500 0.0000 0.1111  plane waves:    4182
 k-point  25 :   0.3750-0.0000 0.1111  plane waves:    4183
 k-point  26 :   0.5000 0.0000 0.1111  plane waves:    4183
 k-point  27 :  -0.3750 0.0000 0.1111  plane waves:    4191
 k-point  28 :  -0.2500 0.0000 0.1111  plane waves:    4182
 k-point  29 :  -0.1250 0.0000 0.1111  plane waves:    4173
 k-point  30 :   0.1250 0.1250 0.1111  plane waves:    4181
 k-point  31 :   0.2500 0.1250 0.1111  plane waves:    4182
 k-point  32 :   0.3750 0.1250 0.1111  plane waves:    4180
 k-point  33 :   0.5000 0.1250 0.1111  plane waves:    4179
 k-point  34 :  -0.3750 0.1250 0.1111  plane waves:    4180
 k-point  35 :  -0.2500 0.1250 0.1111  plane waves:    4174
 k-point  36 :  -0.1250 0.1250 0.1111  plane waves:    4158
 k-point  37 :   0.2500 0.2500 0.1111  plane waves:    4191
 k-point  38 :   0.3750 0.2500 0.1111  plane waves:    4176
 k-point  39 :   0.5000 0.2500 0.1111  plane waves:    4187
 k-point  40 :  -0.3750 0.2500 0.1111  plane waves:    4182
 k-point  41 :  -0.2500 0.2500 0.1111  plane waves:    4181
 k-point  42 :  -0.1250 0.2500 0.1111  plane waves:    4175
 k-point  43 :   0.3750 0.3750 0.1111  plane waves:    4180
 k-point  44 :   0.5000 0.3750 0.1111  plane waves:    4190
 k-point  45 :  -0.3750 0.3750 0.1111  plane waves:    4185
 k-point  46 :  -0.2500 0.3750 0.1111  plane waves:    4177
 k-point  47 :  -0.1250 0.3750 0.1111  plane waves:    4189
 k-point  48 :   0.5000 0.5000 0.1111  plane waves:    4184
 k-point  49 :  -0.3750 0.5000 0.1111  plane waves:    4188
 k-point  50 :  -0.2500 0.5000 0.1111  plane waves:    4193
 k-point  51 :  -0.1250 0.5000 0.1111  plane waves:    4190
 k-point  52 :  -0.3750-0.3750 0.1111  plane waves:    4198
 k-point  53 :  -0.2500-0.3750 0.1111  plane waves:    4204
 k-point  54 :  -0.1250-0.3750 0.1111  plane waves:    4185
 k-point  55 :  -0.2500-0.2500 0.1111  plane waves:    4203
 k-point  56 :  -0.1250-0.2500 0.1111  plane waves:    4201
 k-point  57 :  -0.1250-0.1250 0.1111  plane waves:    4202
 k-point  58 :  -0.0000-0.0000 0.2222  plane waves:    4170
 k-point  59 :   0.1250 0.0000 0.2222  plane waves:    4186
 k-point  60 :   0.2500 0.0000 0.2222  plane waves:    4182
[...]
 k-point 151 :   0.3750 0.3750 0.4444  plane waves:    4203
 k-point 152 :   0.5000 0.3750 0.4444  plane waves:    4197
 k-point 153 :  -0.3750 0.3750 0.4444  plane waves:    4211
 k-point 154 :  -0.2500 0.3750 0.4444  plane waves:    4200
 k-point 155 :  -0.1250 0.3750 0.4444  plane waves:    4187
 k-point 156 :   0.5000 0.5000 0.4444  plane waves:    4194
 k-point 157 :  -0.3750 0.5000 0.4444  plane waves:    4204
 k-point 158 :  -0.2500 0.5000 0.4444  plane waves:    4210
 k-point 159 :  -0.1250 0.5000 0.4444  plane waves:    4190
 k-point 160 :  -0.3750-0.3750 0.4444  plane waves:    4195
 k-point 161 :  -0.2500-0.3750 0.4444  plane waves:    4199
 k-point 162 :  -0.1250-0.3750 0.4444  plane waves:    4187
 k-point 163 :  -0.2500-0.2500 0.4444  plane waves:    4200
 k-point 164 :  -0.1250-0.2500 0.4444  plane waves:    4181
 k-point 165 :  -0.1250-0.1250 0.4444  plane waves:    4175

 maximum and minimum number of plane-waves per node :      2129     2060

 maximum number of plane-waves:      4211
 maximum index in each direction:
   IXMAX=   11   IYMAX=   11   IZMAX=   11
   IXMIN=  -11   IYMIN=  -11   IZMIN=  -11

 parallel 3D FFT for wavefunctions:
    minimum data exchange during FFTs selected (reduces bandwidth)
 parallel 3D FFT for charge:
    minimum data exchange during FFTs selected (reduces bandwidth)

 Broyden mixing: mesh for mixing (old mesh)
   NGX = 23   NGY = 23   NGZ = 23
  (NGX  = 96   NGY  = 96   NGZ  = 96)
  gives a total of  12167 points

 initial charge density was supplied:
 charge density of overlapping atoms calculated
 number of electron     104.0000000 magnetization
 keeping initial charge density in first step

 Maximum index for augmentation-charges        24990 (set IRDMAX)

 First call to EWALD:  gamma=   0.354
 Maximum number of real-space cells 3x 3x 3
 Maximum number of reciprocal cells 3x 3x 3

--------------------------------------- Iteration      1(   1)  ---------------------------------------

 eigenvalue-minimisations  : 22692
 total energy-change (2. order) : 0.8793886E+04  (-0.8101631E+04)
 number of electron     104.0000000 magnetization
 augmentation part      104.0000000 magnetization

 Free energy of the ion-electron system (eV)
  alpha Z        PSCENC =       744.81376823
  Ewald energy   TEWEN  =      -897.42992111
  -Hartree energ DENC   =     -2781.44321527
  -exchange      EXHF   =         0.00000000
  -V(xc)+E(xc)   XCENC  =       514.53363796
  PAW double counting   =      9250.47132855    -9210.50234729
  entropy T*S    EENTRO =        -0.00073405
  eigenvalues    EBANDS =      -491.06356187
  atomic energy  EATOM  =     11664.50664672
  free energy    TOTEN  =      8793.88560188 eV

  energy without entropy =     8793.88633593  energy(sigma->0) =     8793.88596890

[...]

 eigenvalue-minimisations  : 23976
 total energy-change (2. order) :-0.1529346E+04  (-0.1502757E+04)
 number of electron     104.0000000 magnetization
 augmentation part      104.0000000 magnetization

[...]

 eigenvalue-minimisations  :     0
 total energy-change (2. order) :-0.1251465E-07  ( 0.1957896E-07)
 number of electron     104.0000001 magnetization
 augmentation part       20.7988340 magnetization

[...]

 eigenvalue-minimisations  :     0
 total energy-change (2. order) : 0.1804437E-08  (-0.7651161E-10)
 number of electron     104.0000001 magnetization
 augmentation part       20.7988327 magnetization

[...]

--------------------------------------- Iteration      1(  43)  ---------------------------------------

 eigenvalue-minimisations  :     0
 total energy-change (2. order) :-0.7566996E-09  (-0.5560191E-10)
 number of electron     104.0000001 magnetization
 augmentation part       20.7988324 magnetization

 Free energy of the ion-electron system (eV)
  alpha Z        PSCENC =       744.81376823
  Ewald energy   TEWEN  =      -897.42992111
  -Hartree energ DENC   =     -3560.51831145
  -exchange      EXHF   =         0.00000000
  -V(xc)+E(xc)   XCENC  =       567.59164078
  PAW double counting   =    140497.38361230  -140334.69724476
  entropy T*S    EENTRO =        -0.00291310
  eigenvalues    EBANDS =     -1263.43199422
  atomic energy  EATOM  =     11664.50664672
  free energy    TOTEN  =      7418.21528339 eV

  energy without entropy =     7418.21819649  energy(sigma->0) =     7418.21673994

  average scaling for gradient   0.5961

 average (electrostatic) potential at core
  the test charge radii are     0.7672  1.0818  0.9892
  (the norm of the test charge is              1.0000)
       1 -71.6776       2 -71.6776       3 -71.6791       4 -71.6791       5 -78.7643
       6 -75.7695       7 -78.7643       8 -75.7695       9 -78.7652      10 -78.7652
      11 -82.7307      12 -82.7249

 E-fermi :  11.3190     XC(G=0): -13.4361     alpha+bet :-22.3080

 Fermi energy:        11.3189510714

 k-point     1 :       0.0000    0.0000    0.0000
  band No.  band energies     occupation
      1     -51.8116      2.00000
      2     -51.8072      2.00000
      3     -45.5197      2.00000
      4     -45.4927      2.00000
      5     -45.4864      2.00000
      6     -45.4834      2.00000
      7     -34.2584      2.00000
      8     -34.0454      2.00000
      9     -34.0454      2.00000
     10     -33.9908      2.00000
     11     -33.9659      2.00000
     12     -33.9657      2.00000
     13     -33.9012      2.00000
     14     -33.8343      2.00000
     15     -26.9348      2.00000
     16     -26.5582      2.00000
     17     -26.5562      2.00000
     18     -26.2934      2.00000
     19     -25.2152      2.00000
     20     -25.1948      2.00000
     21     -25.1878      2.00000
     22     -25.1877      2.00000
     23     -25.1789      2.00000
     24     -25.1788      2.00000
     25      -1.1436      2.00000
     26       2.3620      2.00000
     27       2.3628      2.00000
     28       2.6468      2.00000
     29       3.2307      2.00000
     30       4.5560      2.00000
     31       5.0202      2.00000
     32       5.1078      2.00000
     33       5.1081      2.00000
     34       5.2482      2.00000
     35       5.4513      2.00000
     36       5.4516      2.00000
     37       5.6125      2.00000
     38       6.0370      2.00000
     39       7.0027      2.00000
     40       7.3114      2.00000
     41       7.3119      2.00000
     42       7.5628      2.00000
     43       7.6428      2.00000
     44       8.7915      2.00000
     45       8.7917      2.00000
     46       8.8912      2.00000
     47      10.7296      2.00000
     48      10.7300      2.00000
     49      11.5272      0.00000
     50      11.6426      0.00000
     51      11.6954      0.00000
     52      11.7283      0.00000
     53      11.9273      0.00000
     54      12.0318      0.00000
     55      12.0320      0.00000
     56      12.2106      0.00000
     57      12.4006      0.00000
     58      12.4010      0.00000
     59      12.5589      0.00000
     60      13.1461      0.00000
     61      13.7711      0.00000
     62      13.7713      0.00000
     63      14.8143      0.00000
     64      16.8515      0.00000
     65      18.5124      0.00000
     66      18.5132      0.00000

[...]

 k-point   165 :      -0.1250   -0.1250    0.4444
  band No.  band energies     occupation
      1     -51.8107      2.00000
      2     -51.8083      2.00000
      3     -45.5122      2.00000
      4     -45.5025      2.00000
      5     -45.4870      2.00000
      6     -45.4822      2.00000
      7     -34.1558      2.00000
      8     -34.0425      2.00000
      9     -34.0409      2.00000
     10     -33.9701      2.00000
     11     -33.9622      2.00000
     12     -33.9562      2.00000
     13     -33.9295      2.00000
     14     -33.9231      2.00000
     15     -26.7766      2.00000
     16     -26.6081      2.00000
     17     -26.5654      2.00000
     18     -26.4288      2.00000
     19     -25.2229      2.00000
     20     -25.2093      2.00000
     21     -25.1942      2.00000
     22     -25.1913      2.00000
     23     -25.1895      2.00000
     24     -25.1835      2.00000
     25       0.0106      2.00000
     26       1.3449      2.00000
     27       2.7541      2.00000
     28       3.5100      2.00000
     29       3.9885      2.00000
     30       4.2134      2.00000
     31       4.9015      2.00000
     32       5.2014      2.00000
     33       5.3026      2.00000
     34       5.5320      2.00000
     35       5.5651      2.00000
     36       6.0676      2.00000
     37       6.1468      2.00000
     38       6.1655      2.00000
     39       6.5803      2.00000
     40       6.9246      2.00000
     41       7.1157      2.00000
     42       7.4547      2.00000
     43       7.4637      2.00000
     44       7.5238      2.00000
     45       7.6364      2.00000
     46       8.3920      2.00000
     47       9.0814      2.00000
     48       9.4114      2.00000
     49      10.7270      2.00000
     50      11.0299      2.00000
     51      11.2840      1.98646
     52      11.3122      1.36771
     53      11.4501      0.00000
     54      11.5358      0.00000
     55      12.0046      0.00000
     56      12.1007      0.00000
     57      12.4409      0.00000
     58      12.4915      0.00000
     59      13.1022      0.00000
     60      13.9271      0.00000
     61      15.1973      0.00000
     62      15.7554      0.00000
     63      16.4078      0.00000
     64      17.6758      0.00000
     65      17.9871      0.00000
     66      19.2571      0.00000

 soft charge-density along one line, spin component           1
         0         1         2         3         4         5         6         7         8         9
 total charge-density along one line

------------------------ aborting loop because EDIFF is reached ----------------------------------------

  FREE ENERGIE OF THE ION-ELECTRON SYSTEM (eV)
  free  energy   TOTEN  =      7418.21528339 eV

  energy  without entropy=     7418.21819649  energy(sigma->0) =     7418.21673994

 writing wavefunctions