 vasp.6.2.0 18Jan21 (build Jan 05 2022 15:41:44) complex

 executed on             LinuxIFC date 2025.05.07  14:21:05

 INCAR:
   SYSTEM = routine with relax: pwdword
   ICHARG = 2
   NPAR = 6
   KPAR = 2
   NCORE = 2
   ADDGRID = T
   PREC = Acc
   ENCUT = 600
   METAGGA = R2SCAN
   LASPH = .TRUE.
   LMIXTAU = .FALSE.
   ALGO = A
   EDIFF = 1E-9
   NELM = 100
   NELMIN = 6
   IALGO = 38
   LREAL = F
   NSW = 0
   ISIF = -1
   ISMEAR = 0
   SIGMA = 0.02
   SYMPREC = 1E-4

 POTCAR:    PAW_PBE B 06Sep2000
 POTCAR:    PAW_PBE Mo_sv 02Feb2006
 POTCAR:    PAW_PBE Si 05Jan2001
|           W    W    AA    RRRRR   N    N  II  N    N   GGGG   !!!           |
|           W    W   A  A   R    R  NN   N  II  NN   N  G    G  !!!           |
|           W    W  A    A  R    R  N N  N  II  N N  N  G       !!!           |
|           W WW W  AAAAAA  RRRRR   N  N N  II  N  N N  G  GGG   !            |
|           WW  WW  A    A  R   R   N   NN  II  N   NN  G    G                |
|           W    W  A    A  R    R  N    N  II  N    N   GGGG   !!!           |
|     For optimal performance we recommend to set                             |
|       NCORE = 2 up to number-of-cores-per-socket                            |
|     This setting can greatly improve the performance of VASP for DFT.       |
|     The default, NCORE=1 might be grossly inefficient on modern             |
|     multi-core architectures or massively parallel machines. Do your        |
|     Unfortunately you need to use the default for GW and RPA                |
|     calculations (for HF NCORE is supported but not extensively tested      |
|     yet).                                                                   |

 POTCAR:    PAW_PBE B 06Sep2000
   VRHFIN =B: s2p1

   TITEL  = PAW_PBE B 06Sep2000
   POMASS =   10.811; ZVAL   =    3.000    mass and valenz
   ENMAX  =  318.614; ENMIN  =  238.960 eV

 POTCAR:    PAW_PBE Mo_sv 02Feb2006
   VRHFIN =Mo: 4p5s4d

   TITEL  = PAW_PBE Mo_sv 02Feb2006
   POMASS =   95.940; ZVAL   =   14.000    mass and valenz
   ENMAX  =  242.676; ENMIN  =  182.007 eV

 POTCAR:    PAW_PBE Si 05Jan2001
   VRHFIN =Si: s2p2

   TITEL  = PAW_PBE Si 05Jan2001
   POMASS =   28.085; ZVAL   =    4.000    mass and valenz
   ENMAX  =  245.345; ENMIN  =  184.009 eV

  PAW_PBE B 06Sep2000                   :
  PAW_PBE Mo_sv 02Feb2006               :
  PAW_PBE Si 05Jan2001                  :

 POSCAR: EA12
  positions in direct lattice

 METAGGA = R2SCA    LMAXTAU =  6    LMIXTAU =  F

 ion  position               nearest neighbor table
   1  0.750  0.250  0.001-   6 1.95   5 1.96   8 1.96   7 1.96  12 2.03  10 2.03
   2  0.250  0.750  0.999-   6 1.95   5 1.96   8 1.96   7 1.96  12 2.03  10 2.03
   3  0.250  0.250  0.500-   7 1.95   5 1.96   8 1.96   6 1.96  11 2.03   9 2.03
   4  0.750  0.750  0.500-   7 1.95   5 1.96   8 1.96   6 1.96  11 2.03   9 2.03
   5  0.500  0.500  0.000-   4 1.96   3 1.96   1 1.96   2 1.96   7 2.77   6 2.77   7 2.77   6 2.77
                             9 2.82   9 2.82  12 2.82  12 2.82  11 2.82  10 2.82  11 2.82  10 2.82
   6  0.000  0.500  0.500-   1 1.95   2 1.95   3 1.96   4 1.96   5 2.77   8 2.77   8 2.77   5 2.77
                            12 2.82  12 2.82   9 2.82   9 2.82  10 2.82  11 2.82  10 2.82  11 2.82
   7  0.500  0.000  0.500-   3 1.95   4 1.95   1 1.96   2 1.96   8 2.77   5 2.77   5 2.77   8 2.77
                            10 2.82  10 2.82  11 2.82  11 2.82   9 2.82   9 2.82  12 2.82  12 2.82
   8  0.000  0.000  0.000-   3 1.96   4 1.96   1 1.96   2 1.96   7 2.77   6 2.77   6 2.77   7 2.77
                            11 2.82  11 2.82  10 2.82  10 2.82   9 2.82  12 2.82   9 2.82  12 2.82
   9  0.000  0.000  0.500-   3 2.03   4 2.03  10 2.77  12 2.77  10 2.77  12 2.77   5 2.82   5 2.82
                             6 2.82   6 2.82   8 2.82   7 2.82   8 2.82   7 2.82
  10  0.000  0.500  0.000-   1 2.03   2 2.03   9 2.77  11 2.77   9 2.77  11 2.77   7 2.82   7 2.82
                             8 2.82   8 2.82   6 2.82   5 2.82   6 2.82   5 2.82
  11  0.500  0.500  0.500-   3 2.03   4 2.03  10 2.77  12 2.77  12 2.77  10 2.77   8 2.82   8 2.82
                             7 2.82   7 2.82   6 2.82   6 2.82   5 2.82   5 2.82
  12  0.500  0.000  0.000-   1 2.03   2 2.03   9 2.77  11 2.77  11 2.77   9 2.77   6 2.82   6 2.82
                             5 2.82   5 2.82   8 2.82   8 2.82   7 2.82   7 2.82

  LATTYP: Found a body centered tetragonal cell.
 ALAT       =     5.5357407548
 C/A-ratio  =     1.4657507438

  Lattice vectors:

 A1 = (   4.8226003523,   0.0000000000,  -2.9196353099)
 A2 = (  -1.5318262830,   4.5728527635,  -2.9196353099)
 A3 = (   0.0000000000,   0.0000000000,   5.6375300000)

Analysis of symmetry for initial positions (statically):
 Subroutine PRICEL returns:
 Original cell was already a primitive cell.

 Routine SETGRP: Setting up the symmetry group for a
 body centered tetragonal supercell.

 Subroutine GETGRP returns: Found 16 space group operations
 (whereof  8 operations were pure point group operations)
 out of a pool of 16 trial point group operations.

The static configuration has the point symmetry C_4h.
 The point group associated with its full space group is D_4h.

Analysis of symmetry for dynamics (positions and initial velocities):
 Subroutine PRICEL returns:
 Original cell was already a primitive cell.

 Routine SETGRP: Setting up the symmetry group for a
 body centered tetragonal supercell.

 Subroutine GETGRP returns: Found 16 space group operations
 (whereof  8 operations were pure point group operations)
 out of a pool of 16 trial point group operations.

The dynamic configuration has the point symmetry C_4h.
 The point group associated with its full space group is D_4h.

 Subroutine INISYM returns: Found 16 space group operations
 (whereof  8 operations are pure point group operations),
 and found     1 'primitive' translations

                                     Primitive cell

  volume of cell :     124.3247

  direct lattice vectors                    reciprocal lattice vectors
     4.822600352  0.000000000 -2.919635310     0.207357012  0.069460999  0.000000000
    -1.531826283  4.572852764 -2.919635310     0.000000000  0.218681871  0.000000000
     0.000000000  0.000000000  5.637530000     0.107388671  0.149227073  0.177382648

  length of vectors
     5.637530000  5.637530000  5.637530000     0.218681871  0.218681871  0.255471426

  position of ions in fractional coordinates (direct lattice)
     0.750300000  0.250300000  0.000610000
     0.249700000  0.749700000  0.999390000
     0.250300000  0.249700000  0.500000000
     0.749700000  0.750300000  0.500000000
     0.500000000  0.500000000  0.000000000
     1.000000000  0.500000000  0.500000000
     0.500000000  0.000000000  0.500000000
     0.000000000  0.000000000  0.000000000
     0.000000000  0.000000000  0.500000000
     1.000000000  0.500000000  1.000000000
     0.500000000  0.500000000  0.500000000
     0.500000000  0.000000000  0.000000000

  ion indices of the primitive-cell ions
   primitive index   ion index
                 1           1
                 2           2
                 3           3
                 4           4
                 5           5
                 6           6
                 7           7
                 8           8
                 9           9
                10          10
                11          11
                12          12

 KPOINTS: EA

Automatic generation of k-mesh.
 Grid dimensions read from file:
 generate k-points for:    8    8    9

 Generating k-lattice:

  Cartesian coordinates                     Fractional coordinates (reciprocal lattice)
     0.025919627  0.008682625  0.000000000     0.125000000 -0.000000000  0.000000000
     0.000000000  0.027335234  0.000000000     0.000000000  0.125000000  0.000000000
     0.011932075  0.016580786  0.019709183     0.000000000 -0.000000000  0.111111111

  Length of vectors
     0.027335234  0.027335234  0.028385714

  Shift w.r.t. Gamma in fractional coordinates (k-lattice)
     0.000000000  0.000000000  0.000000000

 WARNING: IBZKPT: internal override: KBLOWUP is changed to .FALSE.
      ... skipping the blow-up phase ...

 Subroutine IBZKPT returns following result:

 Found    165 irreducible k-points:

 Following reciprocal coordinates:
            Coordinates               Weight
  0.000000  0.000000  0.000000      1.000000
  0.125000 -0.000000  0.000000      4.000000
  0.250000 -0.000000  0.000000      4.000000
  0.375000  0.000000  0.000000      4.000000
  0.500000 -0.000000  0.000000      2.000000
  0.125000  0.125000  0.000000      2.000000
  0.250000  0.125000  0.000000      4.000000
  0.375000  0.125000  0.000000      4.000000
  0.500000  0.125000  0.000000      4.000000
 -0.375000  0.125000  0.000000      4.000000
 -0.250000  0.125000  0.000000      4.000000
 -0.125000  0.125000  0.000000      2.000000
  0.250000  0.250000  0.000000      2.000000
  0.375000  0.250000  0.000000      4.000000
  0.500000  0.250000  0.000000      4.000000
 -0.375000  0.250000  0.000000      4.000000
 -0.250000  0.250000  0.000000      2.000000
  0.375000  0.375000  0.000000      2.000000
  0.500000  0.375000  0.000000      4.000000
 -0.375000  0.375000  0.000000      2.000000
  0.500000  0.500000  0.000000      1.000000
 -0.000000 -0.000000  0.111111      2.000000
  0.125000  0.000000  0.111111      4.000000
  0.250000 -0.000000  0.111111      4.000000
  0.375000  0.000000  0.111111      4.000000
  0.500000  0.000000  0.111111      4.000000
 -0.375000 -0.000000  0.111111      4.000000
 -0.250000  0.000000  0.111111      4.000000
 -0.125000 -0.000000  0.111111      4.000000
  0.125000  0.125000  0.111111      2.000000
  0.250000  0.125000  0.111111      4.000000
  0.375000  0.125000  0.111111      4.000000
  0.500000  0.125000  0.111111      4.000000
 -0.375000  0.125000  0.111111      4.000000
 -0.250000  0.125000  0.111111      4.000000
 -0.125000  0.125000  0.111111      4.000000
  0.250000  0.250000  0.111111      2.000000
  0.375000  0.250000  0.111111      4.000000
  0.500000  0.250000  0.111111      4.000000
 -0.375000  0.250000  0.111111      4.000000
 -0.250000  0.250000  0.111111      4.000000
 -0.125000  0.250000  0.111111      4.000000
  0.375000  0.375000  0.111111      2.000000
  0.500000  0.375000  0.111111      4.000000
 -0.375000  0.375000  0.111111      4.000000
 -0.250000  0.375000  0.111111      4.000000
 -0.125000  0.375000  0.111111      4.000000
  0.500000  0.500000  0.111111      2.000000
 -0.375000  0.500000  0.111111      4.000000
 -0.250000  0.500000  0.111111      4.000000
 -0.125000  0.500000  0.111111      4.000000
 -0.375000 -0.375000  0.111111      2.000000
 -0.250000 -0.375000  0.111111      4.000000
 -0.125000 -0.375000  0.111111      4.000000
 -0.250000 -0.250000  0.111111      2.000000
 -0.125000 -0.250000  0.111111      4.000000
 -0.125000 -0.125000  0.111111      2.000000
 -0.000000  0.000000  0.222222      2.000000
  0.125000  0.000000  0.222222      4.000000
  0.250000  0.000000  0.222222      4.000000
[...]
  0.375000  0.375000  0.444444      2.000000
  0.500000  0.375000  0.444444      4.000000
 -0.375000  0.375000  0.444444      4.000000
[...]
   0.25000000  0.25000000  0.00000000       0.003
   0.37500000  0.25000000  0.00000000       0.007
   0.50000000  0.25000000  0.00000000       0.007
  -0.37500000  0.25000000  0.00000000       0.007
  -0.25000000  0.25000000  0.00000000       0.003
   0.37500000  0.37500000  0.00000000       0.003
   0.50000000  0.37500000  0.00000000       0.007
  -0.37500000  0.37500000  0.00000000       0.003
   0.50000000  0.50000000  0.00000000       0.002
  -0.00000000 -0.00000000  0.11111111       0.003
   0.12500000  0.00000000  0.11111111       0.007
   0.25000000 -0.00000000  0.11111111       0.007
   0.37500000  0.00000000  0.11111111       0.007
   0.50000000  0.00000000  0.11111111       0.007
  -0.37500000 -0.00000000  0.11111111       0.007
  -0.25000000  0.00000000  0.11111111       0.007
  -0.12500000 -0.00000000  0.11111111       0.007
   0.12500000  0.12500000  0.11111111       0.003
   0.25000000  0.12500000  0.11111111       0.007
   0.37500000  0.12500000  0.11111111       0.007
   0.50000000  0.12500000  0.11111111       0.007
  -0.37500000  0.12500000  0.11111111       0.007
  -0.25000000  0.12500000  0.11111111       0.007
  -0.12500000  0.12500000  0.11111111       0.007
   0.25000000  0.25000000  0.11111111       0.003
   0.37500000  0.25000000  0.11111111       0.007
   0.50000000  0.25000000  0.11111111       0.007
  -0.37500000  0.25000000  0.11111111       0.007
  -0.25000000  0.25000000  0.11111111       0.007
  -0.12500000  0.25000000  0.11111111       0.007
   0.37500000  0.37500000  0.11111111       0.003
   0.50000000  0.37500000  0.11111111       0.007
  -0.37500000  0.37500000  0.11111111       0.007
  -0.25000000  0.37500000  0.11111111       0.007
  -0.12500000  0.37500000  0.11111111       0.007
   0.50000000  0.50000000  0.11111111       0.003
  -0.37500000  0.50000000  0.11111111       0.007
  -0.25000000  0.50000000  0.11111111       0.007
  -0.12500000  0.50000000  0.11111111       0.007
  -0.37500000 -0.37500000  0.11111111       0.003
  -0.25000000 -0.37500000  0.11111111       0.007
  -0.12500000 -0.37500000  0.11111111       0.007
  -0.25000000 -0.25000000  0.11111111       0.003
  -0.12500000 -0.25000000  0.11111111       0.007
  -0.12500000 -0.12500000  0.11111111       0.003
  -0.00000000  0.00000000  0.22222222       0.003
   0.12500000  0.00000000  0.22222222       0.007
   0.25000000  0.00000000  0.22222222       0.007
[...]
   0.37500000  0.37500000  0.44444444       0.003
   0.50000000  0.37500000  0.44444444       0.007
  -0.37500000  0.37500000  0.44444444       0.007
  -0.25000000  0.37500000  0.44444444       0.007
  -0.12500000  0.37500000  0.44444444       0.007
   0.50000000  0.50000000  0.44444444       0.003
  -0.37500000  0.50000000  0.44444444       0.007
  -0.25000000  0.50000000  0.44444444       0.007
  -0.12500000  0.50000000  0.44444444       0.007
  -0.37500000 -0.37500000  0.44444444       0.003
  -0.25000000 -0.37500000  0.44444444       0.007
  -0.12500000 -0.37500000  0.44444444       0.007
  -0.25000000 -0.25000000  0.44444444       0.003
  -0.12500000 -0.25000000  0.44444444       0.007
  -0.12500000 -0.12500000  0.44444444       0.003

 position of ions in fractional coordinates (direct lattice)
   0.75030000  0.25030000  0.00061000
   0.24970000  0.74970000  0.99939000
   0.25030000  0.24970000  0.50000000
   0.74970000  0.75030000  0.50000000
   0.50000000  0.50000000  0.00000000
   0.00000000  0.50000000  0.50000000
   0.50000000  0.00000000  0.50000000
   0.00000000  0.00000000  0.00000000
   0.00000000  0.00000000  0.50000000
   0.00000000  0.50000000  0.00000000
   0.50000000  0.50000000  0.50000000
   0.50000000  0.00000000  0.00000000

 position of ions in cartesian coordinates  (Angst):
   3.23498093  1.14458505 -2.91794820
   0.05579314  3.42826772  2.71620758
   0.82459985  1.14184134  1.35894735
   2.46617422  3.43101143 -1.56068796
   1.64538703  2.28642638 -2.91963531
  -0.76591314  2.28642638  1.35894735
   2.41130018  0.00000000  1.35894735
   0.00000000  0.00000000  0.00000000
   0.00000000  0.00000000  2.81876500
  -0.76591314  2.28642638 -1.45981765
   1.64538703  2.28642638 -0.10087031
   2.41130018  0.00000000 -1.45981765

 k-point   1 :   0.0000 0.0000 0.0000  plane waves:    4153
 k-point   2 :   0.1250-0.0000 0.0000  plane waves:    4150
 k-point   3 :   0.2500-0.0000 0.0000  plane waves:    4138
 k-point   4 :   0.3750 0.0000 0.0000  plane waves:    4153
 k-point   5 :   0.5000-0.0000 0.0000  plane waves:    4160
 k-point   6 :   0.1250 0.1250 0.0000  plane waves:    4148
 k-point   7 :   0.2500 0.1250 0.0000  plane waves:    4150
 k-point   8 :   0.3750 0.1250 0.0000  plane waves:    4151
 k-point   9 :   0.5000 0.1250 0.0000  plane waves:    4147
 k-point  10 :  -0.3750 0.1250 0.0000  plane waves:    4138
 k-point  11 :  -0.2500 0.1250 0.0000  plane waves:    4142
 k-point  12 :  -0.1250 0.1250 0.0000  plane waves:    4151
 k-point  13 :   0.2500 0.2500 0.0000  plane waves:    4156
 k-point  14 :   0.3750 0.2500 0.0000  plane waves:    4155
 k-point  15 :   0.5000 0.2500 0.0000  plane waves:    4151
 k-point  16 :  -0.3750 0.2500 0.0000  plane waves:    4148
 k-point  17 :  -0.2500 0.2500 0.0000  plane waves:    4140
 k-point  18 :   0.3750 0.3750 0.0000  plane waves:    4161
 k-point  19 :   0.5000 0.3750 0.0000  plane waves:    4161
 k-point  20 :  -0.3750 0.3750 0.0000  plane waves:    4154
 k-point  21 :   0.5000 0.5000 0.0000  plane waves:    4164
 k-point  22 :  -0.0000-0.0000 0.1111  plane waves:    4155
 k-point  23 :   0.1250 0.0000 0.1111  plane waves:    4143
 k-point  24 :   0.2500-0.0000 0.1111  plane waves:    4136
 k-point  25 :   0.3750 0.0000 0.1111  plane waves:    4150
 k-point  26 :   0.5000 0.0000 0.1111  plane waves:    4154
 k-point  27 :  -0.3750-0.0000 0.1111  plane waves:    4149
 k-point  28 :  -0.2500 0.0000 0.1111  plane waves:    4150
 k-point  29 :  -0.1250-0.0000 0.1111  plane waves:    4148
 k-point  30 :   0.1250 0.1250 0.1111  plane waves:    4142
 k-point  31 :   0.2500 0.1250 0.1111  plane waves:    4150
 k-point  32 :   0.3750 0.1250 0.1111  plane waves:    4161
 k-point  33 :   0.5000 0.1250 0.1111  plane waves:    4147
 k-point  34 :  -0.3750 0.1250 0.1111  plane waves:    4142
 k-point  35 :  -0.2500 0.1250 0.1111  plane waves:    4145
 k-point  36 :  -0.1250 0.1250 0.1111  plane waves:    4162
 k-point  37 :   0.2500 0.2500 0.1111  plane waves:    4162
 k-point  38 :   0.3750 0.2500 0.1111  plane waves:    4159
 k-point  39 :   0.5000 0.2500 0.1111  plane waves:    4155
 k-point  40 :  -0.3750 0.2500 0.1111  plane waves:    4151
 k-point  41 :  -0.2500 0.2500 0.1111  plane waves:    4155
 k-point  42 :  -0.1250 0.2500 0.1111  plane waves:    4150
 k-point  43 :   0.3750 0.3750 0.1111  plane waves:    4161
 k-point  44 :   0.5000 0.3750 0.1111  plane waves:    4160
 k-point  45 :  -0.3750 0.3750 0.1111  plane waves:    4156
 k-point  46 :  -0.2500 0.3750 0.1111  plane waves:    4147
 k-point  47 :  -0.1250 0.3750 0.1111  plane waves:    4147
 k-point  48 :   0.5000 0.5000 0.1111  plane waves:    4162
 k-point  49 :  -0.3750 0.5000 0.1111  plane waves:    4144
 k-point  50 :  -0.2500 0.5000 0.1111  plane waves:    4145
 k-point  51 :  -0.1250 0.5000 0.1111  plane waves:    4145
 k-point  52 :  -0.3750-0.3750 0.1111  plane waves:    4149
 k-point  53 :  -0.2500-0.3750 0.1111  plane waves:    4153
 k-point  54 :  -0.1250-0.3750 0.1111  plane waves:    4142
 k-point  55 :  -0.2500-0.2500 0.1111  plane waves:    4141
 k-point  56 :  -0.1250-0.2500 0.1111  plane waves:    4138
 k-point  57 :  -0.1250-0.1250 0.1111  plane waves:    4156
 k-point  58 :  -0.0000 0.0000 0.2222  plane waves:    4138
 k-point  59 :   0.1250 0.0000 0.2222  plane waves:    4150
 k-point  60 :   0.2500 0.0000 0.2222  plane waves:    4150
[...]
 k-point 151 :   0.3750 0.3750 0.4444  plane waves:    4158
 k-point 152 :   0.5000 0.3750 0.4444  plane waves:    4148
 k-point 153 :  -0.3750 0.3750 0.4444  plane waves:    4145
 k-point 154 :  -0.2500 0.3750 0.4444  plane waves:    4145
 k-point 155 :  -0.1250 0.3750 0.4444  plane waves:    4147
 k-point 156 :   0.5000 0.5000 0.4444  plane waves:    4156
 k-point 157 :  -0.3750 0.5000 0.4444  plane waves:    4157
 k-point 158 :  -0.2500 0.5000 0.4444  plane waves:    4146
 k-point 159 :  -0.1250 0.5000 0.4444  plane waves:    4141
 k-point 160 :  -0.3750-0.3750 0.4444  plane waves:    4137
 k-point 161 :  -0.2500-0.3750 0.4444  plane waves:    4144
 k-point 162 :  -0.1250-0.3750 0.4444  plane waves:    4155
 k-point 163 :  -0.2500-0.2500 0.4444  plane waves:    4145
 k-point 164 :  -0.1250-0.2500 0.4444  plane waves:    4152
 k-point 165 :  -0.1250-0.1250 0.4444  plane waves:    4153

 maximum and minimum number of plane-waves per node :      2101     2046

 maximum number of plane-waves:      4176
 maximum index in each direction:
   IXMAX=   11   IYMAX=   11   IZMAX=   11
   IXMIN=  -11   IYMIN=  -11   IZMIN=  -11

 parallel 3D FFT for wavefunctions:
    minimum data exchange during FFTs selected (reduces bandwidth)
 parallel 3D FFT for charge:
    minimum data exchange during FFTs selected (reduces bandwidth)

 Broyden mixing: mesh for mixing (old mesh)
   NGX = 23   NGY = 23   NGZ = 23
  (NGX  = 96   NGY  = 96   NGZ  = 96)
  gives a total of  12167 points

 initial charge density was supplied:
 charge density of overlapping atoms calculated
 number of electron      84.0000000 magnetization
 keeping initial charge density in first step

 Maximum index for augmentation-charges        25167 (set IRDMAX)

 First call to EWALD:  gamma=   0.355
 Maximum number of real-space cells 3x 3x 3
 Maximum number of reciprocal cells 3x 3x 3

--------------------------------------- Iteration      1(   1)  ---------------------------------------

 eigenvalue-minimisations  : 17820
 total energy-change (2. order) : 0.7548800E+03  (-0.5550640E+04)
 number of electron      84.0000000 magnetization
 augmentation part       84.0000000 magnetization

 Free energy of the ion-electron system (eV)
  alpha Z        PSCENC =       440.47182076
  Ewald energy   TEWEN  =     -6655.41113364
  -Hartree energ DENC   =     -1950.34714376
  -exchange      EXHF   =         0.00000000
  -V(xc)+E(xc)   XCENC  =       334.15724578
  PAW double counting   =      6444.67582193    -6389.50304870
  entropy T*S    EENTRO =        -0.00042922
  eigenvalues    EBANDS =       384.76213566
  atomic energy  EATOM  =      8146.07472429
  free energy    TOTEN  =       754.87999309 eV

  energy without entropy =      754.88042232  energy(sigma->0) =      754.88020771

[...]

 eigenvalue-minimisations  : 19950
 total energy-change (2. order) :-0.9102347E+03  (-0.8911776E+03)
 number of electron      84.0000000 magnetization
 augmentation part       84.0000000 magnetization

[...]

 eigenvalue-minimisations  :     0
 total energy-change (2. order) : 0.6693881E-09  (-0.1518690E-08)
 number of electron      84.0000000 magnetization
 augmentation part        9.0843763 magnetization

[...]

--------------------------------------- Iteration      1(  31)  ---------------------------------------

 eigenvalue-minimisations  :     0
 total energy-change (2. order) :-0.7639755E-09  (-0.3630602E-09)
 number of electron      84.0000000 magnetization
 augmentation part        9.0843763 magnetization

 Free energy of the ion-electron system (eV)
  alpha Z        PSCENC =       440.47182076
  Ewald energy   TEWEN  =     -6655.41113364
  -Hartree energ DENC   =     -1904.10644255
  -exchange      EXHF   =         0.00000000
  -V(xc)+E(xc)   XCENC  =       345.00138783
  PAW double counting   =     13995.00803296   -13954.07337422
  entropy T*S    EENTRO =        -0.00123474
  eigenvalues    EBANDS =      -568.00402580
  atomic energy  EATOM  =      8146.07472429
  free energy    TOTEN  =      -155.04024511 eV

  energy without entropy =     -155.03901037  energy(sigma->0) =     -155.03962774

  average scaling for gradient   1.7240

 average (electrostatic) potential at core
  the test charge radii are     0.7672  1.0818  0.9892
  (the norm of the test charge is              1.0000)
       1 -21.0743       2 -21.0743       3 -21.0743       4 -21.0743       5 -73.1802
       6 -73.1809       7 -73.1795       8 -73.1802       9 -80.2701      10 -80.2695
      11 -80.2701      12 -80.2708

 E-fermi :  13.5594     XC(G=0): -14.1013     alpha+bet :-21.3402

 Fermi energy:        13.5594122536

 k-point     1 :       0.0000    0.0000    0.0000
  band No.  band energies     occupation
      1     -49.6190      2.00000
      2     -49.4907      2.00000
      3     -49.4907      2.00000
      4     -49.3589      2.00000
      5     -24.0293      2.00000
      6     -24.0293      2.00000
      7     -23.8748      2.00000
      8     -23.8746      2.00000
      9     -22.9613      2.00000
     10     -22.8860      2.00000
     11     -22.8857      2.00000
     12     -22.8361      2.00000
     13     -22.8361      2.00000
     14     -22.7105      2.00000
     15     -22.7105      2.00000
     16     -22.6880      2.00000
     17      -1.6571      2.00000
     18       1.0720      2.00000
     19       1.8429      2.00000
     20       1.8429      2.00000
     21       4.8594      2.00000
     22       5.2023      2.00000
     23       5.2023      2.00000
     24       5.2415      2.00000
     25       5.2415      2.00000
     26       6.1904      2.00000
     27       7.2198      2.00000
     28       7.2198      2.00000
     29       7.4198      2.00000
     30       7.4201      2.00000
     31       7.9002      2.00000
     32       8.7271      2.00000
     33       8.7273      2.00000
     34       8.8719      2.00000
     35       9.6841      2.00000
     36       9.6841      2.00000
     37      10.9468      2.00000
     38      12.6345      2.00000
     39      12.7027      2.00000
     40      12.7028      2.00000
     41      13.7169      0.00000
     42      13.7172      0.00000
     43      14.0947      0.00000
     44      14.2961      0.00000
     45      14.2961      0.00000
     46      14.3291      0.00000
     47      14.3291      0.00000
     48      14.7036      0.00000
     49      14.7037      0.00000
     50      15.6092      0.00000
     51      15.6094      0.00000
     52      17.7686      0.00000
     53      17.9361      0.00000
     54      18.1709      0.00000

[...]

 k-point   165 :      -0.1250   -0.1250    0.4444
  band No.  band energies     occupation
      1     -49.5603      2.00000
      2     -49.4906      2.00000
      3     -49.4906      2.00000
      4     -49.4206      2.00000
      5     -23.7422      2.00000
      6     -23.7421      2.00000
      7     -23.6591      2.00000
      8     -23.6556      2.00000
      9     -23.1298      2.00000
     10     -23.1250      2.00000
     11     -23.0341      2.00000
     12     -23.0340      2.00000
     13     -22.8989      2.00000
     14     -22.8388      2.00000
     15     -22.8388      2.00000
     16     -22.7505      2.00000
     17      -0.3619      2.00000
     18       1.6069      2.00000
     19       1.7098      2.00000
     20       1.7099      2.00000
     21       3.5863      2.00000
     22       3.5864      2.00000
     23       4.6771      2.00000
     24       5.2635      2.00000
     25       6.7027      2.00000
     26       6.7027      2.00000
     27       7.0516      2.00000
     28       7.0896      2.00000
     29       8.2201      2.00000
     30       8.2202      2.00000
     31       8.2674      2.00000
     32       8.6221      2.00000
     33       8.8392      2.00000
     34       8.9699      2.00000
     35       8.9699      2.00000
     36       9.9172      2.00000
     37      10.4324      2.00000
     38      11.6083      2.00000
     39      11.6083      2.00000
     40      12.1073      2.00000
     41      13.3016      2.00000
     42      13.7017      0.00000
     43      13.7017      0.00000
     44      14.3810      0.00000
     45      14.4564      0.00000
     46      15.0689      0.00000
     47      15.0689      0.00000
     48      15.1686      0.00000
     49      15.2016      0.00000
     50      16.0892      0.00000
     51      16.1822      0.00000
     52      16.1822      0.00000
     53      17.2782      0.00000
     54      17.2784      0.00000

 soft charge-density along one line, spin component           1
         0         1         2         3         4         5         6         7         8         9
 total charge-density along one line

------------------------ aborting loop because EDIFF is reached ----------------------------------------

  FREE ENERGIE OF THE ION-ELECTRON SYSTEM (eV)
  free  energy   TOTEN  =      -155.04024511 eV

  energy  without entropy=     -155.03901037  energy(sigma->0) =     -155.03962774

 writing wavefunctions