 vasp.6.2.0 18Jan21 (build Jan 05 2022 15:41:44) complex

 executed on             LinuxIFC date 2025.05.07  16:35:29

 INCAR:
   SYSTEM = routine with relax: pwdword
   ICHARG = 2
   NPAR = 6
   KPAR = 2
   NCORE = 2
   ADDGRID = T
   PREC = Acc
   ENCUT = 600
   METAGGA = R2SCAN
   LASPH = .TRUE.
   LMIXTAU = .FALSE.
   ALGO = A
   EDIFF = 1E-9
   NELM = 100
   NELMIN = 6
   IALGO = 38
   LREAL = F
   NSW = 0
   ISIF = -1
   ISMEAR = 0
   SIGMA = 0.02

 POTCAR:    PAW_PBE B 06Sep2000
 POTCAR:    PAW_PBE Mo_sv 02Feb2006
 POTCAR:    PAW_PBE Si 05Jan2001
|           W    W    AA    RRRRR   N    N  II  N    N   GGGG   !!!           |
|           W    W   A  A   R    R  NN   N  II  NN   N  G    G  !!!           |
|           W    W  A    A  R    R  N N  N  II  N N  N  G       !!!           |
|           W WW W  AAAAAA  RRRRR   N  N N  II  N  N N  G  GGG   !            |
|           WW  WW  A    A  R   R   N   NN  II  N   NN  G    G                |
|           W    W  A    A  R    R  N    N  II  N    N   GGGG   !!!           |
|     For optimal performance we recommend to set                             |
|       NCORE = 2 up to number-of-cores-per-socket                            |
|     This setting can greatly improve the performance of VASP for DFT.       |
|     The default, NCORE=1 might be grossly inefficient on modern             |
|     multi-core architectures or massively parallel machines. Do your        |
|     Unfortunately you need to use the default for GW and RPA                |
|     calculations (for HF NCORE is supported but not extensively tested      |
|     yet).                                                                   |

 POTCAR:    PAW_PBE B 06Sep2000
   VRHFIN =B: s2p1

   TITEL  = PAW_PBE B 06Sep2000
   POMASS =   10.811; ZVAL   =    3.000    mass and valenz
   ENMAX  =  318.614; ENMIN  =  238.960 eV

 POTCAR:    PAW_PBE Mo_sv 02Feb2006
   VRHFIN =Mo: 4p5s4d

   TITEL  = PAW_PBE Mo_sv 02Feb2006
   POMASS =   95.940; ZVAL   =   14.000    mass and valenz
   ENMAX  =  242.676; ENMIN  =  182.007 eV

 POTCAR:    PAW_PBE Si 05Jan2001
   VRHFIN =Si: s2p2

   TITEL  = PAW_PBE Si 05Jan2001
   POMASS =   28.085; ZVAL   =    4.000    mass and valenz
   ENMAX  =  245.345; ENMIN  =  184.009 eV

  PAW_PBE B 06Sep2000                   :
  PAW_PBE Mo_sv 02Feb2006               :
  PAW_PBE Si 05Jan2001                  :

 POSCAR: EA88
  positions in direct lattice

 METAGGA = R2SCA    LMAXTAU =  6    LMIXTAU =  F

 ion  position               nearest neighbor table
   1  0.500  0.000  0.000-   6 2.29   8 2.29   7 2.32   5 2.32
   2  0.000  0.000  0.500-   9 2.29  10 2.29   5 2.32   7 2.32
   3  0.000  0.500  0.000-   6 2.29   8 2.29   7 2.32   5 2.32
   4  0.500  0.500  0.500-   9 2.29  10 2.29   7 2.32   5 2.32
   5  0.250  0.250  0.000-  11 2.29  12 2.29   1 2.32   3 2.32   4 2.32   2 2.32   8 3.26   6 3.26
                             9 3.26   9 3.26   6 3.26   8 3.26  10 3.26  10 3.26
   6  0.750  0.250  0.000-   3 2.29   1 2.29  12 2.32  11 2.32   5 3.26   7 3.26   7 3.26   5 3.26
                             9 3.28  10 3.28  10 3.28   9 3.28
   7  0.750  0.750  0.000-  11 2.29  12 2.29   1 2.32   3 2.32   2 2.32   4 2.32   8 3.26   6 3.26
                            10 3.26  10 3.26   6 3.26   8 3.26   9 3.26   9 3.26
   8  0.250  0.750  1.000-   3 2.29   1 2.29  12 2.32  11 2.32   5 3.26   7 3.26   7 3.26   5 3.26
                             9 3.28  10 3.28   9 3.28  10 3.28
   9  0.250  0.250  0.500-   2 2.29   4 2.29  12 2.32  11 2.32   5 3.26   5 3.26   7 3.26   7 3.26
                             6 3.28   8 3.28   6 3.28   8 3.28
  10  0.750  0.750  0.500-   2 2.29   4 2.29  11 2.32  12 2.32   7 3.26   7 3.26   5 3.26   5 3.26
                             6 3.28   8 3.28   6 3.28   8 3.28
  11  0.000  0.000  0.000-   5 2.29   7 2.29   6 2.32   8 2.32   9 2.32  10 2.32
  12  0.500  0.500  0.000-   5 2.29   7 2.29   6 2.32   8 2.32  10 2.32   9 2.32

  LATTYP: Found a body centered tetragonal cell.
 ALAT       =     6.5577357980
 C/A-ratio  =     1.3996472518

  Lattice vectors:

 A1 = (   5.6693546899,   0.0000000000,  -3.2282371849)
 A2 = (  -1.9159194842,   5.3358068865,  -3.2282371849)
 A3 = (   0.0000000000,   0.0000000000,   6.5240400000)

Analysis of symmetry for initial positions (statically):
 Subroutine PRICEL returns:
 Original cell was already a primitive cell.

 Routine SETGRP: Setting up the symmetry group for a
 body centered tetragonal supercell.

 Subroutine GETGRP returns: Found 16 space group operations
 (whereof  8 operations were pure point group operations)
 out of a pool of 16 trial point group operations.

The static configuration has the point symmetry C_4h.
 The point group associated with its full space group is D_4h.

Analysis of symmetry for dynamics (positions and initial velocities):
 Subroutine PRICEL returns:
 Original cell was already a primitive cell.

 Routine SETGRP: Setting up the symmetry group for a
 body centered tetragonal supercell.

 Subroutine GETGRP returns: Found 16 space group operations
 (whereof  8 operations were pure point group operations)
 out of a pool of 16 trial point group operations.

The dynamic configuration has the point symmetry C_4h.
 The point group associated with its full space group is D_4h.

 Subroutine INISYM returns: Found 16 space group operations
 (whereof  8 operations are pure point group operations),
 and found     1 'primitive' translations

                                     Primitive cell

  volume of cell :     197.3560

  direct lattice vectors                    reciprocal lattice vectors
     5.669354690  0.000000000 -3.228237185     0.176386918  0.063334963  0.000000000
    -1.915919484  5.335806887 -3.228237185     0.000000000  0.187413079  0.000000000
     0.000000000  0.000000000  6.524040000     0.087280091  0.124075597  0.153279256

  length of vectors
     6.524040000  6.524040000  6.524040000     0.187413079  0.187413079  0.215655045

  position of ions in fractional coordinates (direct lattice)
     0.500000000  0.000000000  1.000000000
     0.000000000  0.000000000  0.500000000
     1.000000000  0.500000000  1.000000000
     0.500000000  0.500000000  0.500000000
     0.250000000  0.250000000  1.000000000
     0.750010000  0.250010000  0.000020000
     0.750000000  0.750000000  1.000000000
     0.249990000  0.749990000  0.999980000
     0.250010000  0.249990000  0.500000000
     0.749990000  0.750010000  0.500000000
     0.000000000  0.000000000  0.000000000
     0.500000000  0.500000000  1.000000000

  ion indices of the primitive-cell ions
   primitive index   ion index
                 1           1
                 2           2
                 3           3
                 4           4
                 5           5
                 6           6
                 7           7
                 8           8
                 9           9
                10          10
                11          11
                12          12

 KPOINTS: EA

Automatic generation of k-mesh.
 Grid dimensions read from file:
 generate k-points for:    7    7    8

 Generating k-lattice:

  Cartesian coordinates                     Fractional coordinates (reciprocal lattice)
     0.025198131  0.009047852  0.000000000     0.142857143 -0.000000000  0.000000000
     0.000000000  0.026773297  0.000000000     0.000000000  0.142857143  0.000000000
     0.010910011  0.015509450  0.019159907    -0.000000000 -0.000000000  0.125000000

  Length of vectors
     0.026773297  0.026773297  0.026956881

  Shift w.r.t. Gamma in fractional coordinates (k-lattice)
     0.000000000  0.000000000  0.000000000

 WARNING: IBZKPT: internal override: KBLOWUP is changed to .FALSE.
      ... skipping the blow-up phase ...

 Subroutine IBZKPT returns following result:

 Found    116 irreducible k-points:

 Following reciprocal coordinates:
            Coordinates               Weight
  0.000000  0.000000  0.000000      1.000000
  0.142857  0.000000  0.000000      4.000000
  0.285714 -0.000000  0.000000      4.000000
  0.428571 -0.000000  0.000000      4.000000
  0.142857  0.142857  0.000000      2.000000
  0.285714  0.142857  0.000000      4.000000
  0.428571  0.142857  0.000000      4.000000
 -0.428571  0.142857  0.000000      4.000000
 -0.285714  0.142857  0.000000      4.000000
 -0.142857  0.142857  0.000000      2.000000
  0.285714  0.285714  0.000000      2.000000
  0.428571  0.285714  0.000000      4.000000
 -0.428571  0.285714  0.000000      4.000000
 -0.285714  0.285714  0.000000      2.000000
  0.428571  0.428571  0.000000      2.000000
 -0.428571  0.428571  0.000000      2.000000
  0.000000 -0.000000  0.125000      2.000000
  0.142857 -0.000000  0.125000      4.000000
  0.285714  0.000000  0.125000      4.000000
  0.428571 -0.000000  0.125000      4.000000
 -0.428571 -0.000000  0.125000      4.000000
 -0.285714  0.000000  0.125000      4.000000
 -0.142857 -0.000000  0.125000      4.000000
  0.142857  0.142857  0.125000      2.000000
  0.285714  0.142857  0.125000      4.000000
  0.428571  0.142857  0.125000      4.000000
 -0.428571  0.142857  0.125000      4.000000
 -0.285714  0.142857  0.125000      4.000000
 -0.142857  0.142857  0.125000      4.000000
  0.285714  0.285714  0.125000      2.000000
  0.428571  0.285714  0.125000      4.000000
 -0.428571  0.285714  0.125000      4.000000
 -0.285714  0.285714  0.125000      4.000000
 -0.142857  0.285714  0.125000      4.000000
  0.428571  0.428571  0.125000      2.000000
 -0.428571  0.428571  0.125000      4.000000
 -0.285714  0.428571  0.125000      4.000000
 -0.142857  0.428571  0.125000      4.000000
 -0.428571 -0.428571  0.125000      2.000000
 -0.285714 -0.428571  0.125000      4.000000
 -0.142857 -0.428571  0.125000      4.000000
 -0.285714 -0.285714  0.125000      2.000000
 -0.142857 -0.285714  0.125000      4.000000
 -0.142857 -0.142857  0.125000      2.000000
  0.000000 -0.000000  0.250000      2.000000
  0.142857 -0.000000  0.250000      4.000000
  0.285714  0.000000  0.250000      4.000000
  0.428571 -0.000000  0.250000      4.000000
 -0.428571  0.000000  0.250000      4.000000
 -0.285714 -0.000000  0.250000      4.000000
 -0.142857 -0.000000  0.250000      4.000000
  0.142857  0.142857  0.250000      2.000000
  0.285714  0.142857  0.250000      4.000000
  0.428571  0.142857  0.250000      4.000000
 -0.428571  0.142857  0.250000      4.000000
 -0.285714  0.142857  0.250000      4.000000
 -0.142857  0.142857  0.250000      4.000000
  0.285714  0.285714  0.250000      2.000000
  0.428571  0.285714  0.250000      4.000000
 -0.428571  0.285714  0.250000      4.000000
[...]
  0.142857 -0.000000  0.500000      4.000000
  0.285714 -0.000000  0.500000      4.000000
  0.428571 -0.000000  0.500000      4.000000
  0.142857  0.142857  0.500000      2.000000
  0.285714  0.142857  0.500000      4.000000
  0.428571  0.142857  0.500000      4.000000
 -0.428571  0.142857  0.500000      4.000000
 -0.285714  0.142857  0.500000      4.000000
 -0.142857  0.142857  0.500000      2.000000
  0.285714  0.285714  0.500000      2.000000
  0.428571  0.285714  0.500000      4.000000
 -0.428571  0.285714  0.500000      4.000000
[...]
  -0.14285714  0.28571429  0.12500000       0.010
   0.42857143  0.42857143  0.12500000       0.005
  -0.42857143  0.42857143  0.12500000       0.010
  -0.28571429  0.42857143  0.12500000       0.010
  -0.14285714  0.42857143  0.12500000       0.010
  -0.42857143 -0.42857143  0.12500000       0.005
  -0.28571429 -0.42857143  0.12500000       0.010
  -0.14285714 -0.42857143  0.12500000       0.010
  -0.28571429 -0.28571429  0.12500000       0.005
  -0.14285714 -0.28571429  0.12500000       0.010
  -0.14285714 -0.14285714  0.12500000       0.005
   0.00000000 -0.00000000  0.25000000       0.005
   0.14285714 -0.00000000  0.25000000       0.010
   0.28571429  0.00000000  0.25000000       0.010
   0.42857143 -0.00000000  0.25000000       0.010
  -0.42857143  0.00000000  0.25000000       0.010
  -0.28571429 -0.00000000  0.25000000       0.010
  -0.14285714 -0.00000000  0.25000000       0.010
   0.14285714  0.14285714  0.25000000       0.005
   0.28571429  0.14285714  0.25000000       0.010
   0.42857143  0.14285714  0.25000000       0.010
  -0.42857143  0.14285714  0.25000000       0.010
  -0.28571429  0.14285714  0.25000000       0.010
  -0.14285714  0.14285714  0.25000000       0.010
   0.28571429  0.28571429  0.25000000       0.005
   0.42857143  0.28571429  0.25000000       0.010
  -0.42857143  0.28571429  0.25000000       0.010
[...]
   0.14285714 -0.00000000  0.50000000       0.010
   0.28571429 -0.00000000  0.50000000       0.010
   0.42857143 -0.00000000  0.50000000       0.010
   0.14285714  0.14285714  0.50000000       0.005
   0.28571429  0.14285714  0.50000000       0.010
   0.42857143  0.14285714  0.50000000       0.010
  -0.42857143  0.14285714  0.50000000       0.010
  -0.28571429  0.14285714  0.50000000       0.010
  -0.14285714  0.14285714  0.50000000       0.005
   0.28571429  0.28571429  0.50000000       0.005
   0.42857143  0.28571429  0.50000000       0.010
  -0.42857143  0.28571429  0.50000000       0.010
  -0.28571429  0.28571429  0.50000000       0.005
   0.42857143  0.42857143  0.50000000       0.005
  -0.42857143  0.42857143  0.50000000       0.005

 position of ions in fractional coordinates (direct lattice)
   0.50000000  0.00000000  0.00000000
   0.00000000  0.00000000  0.50000000
   0.00000000  0.50000000  0.00000000
   0.50000000  0.50000000  0.50000000
   0.25000000  0.25000000  0.00000000
   0.75001000  0.25001000  0.00002000
   0.75000000  0.75000000  0.00000000
   0.24999000  0.74999000  0.99998000
   0.25001000  0.24999000  0.50000000
   0.74999000  0.75001000  0.50000000
   0.00000000  0.00000000  0.00000000
   0.50000000  0.50000000  0.00000000

 position of ions in cartesian coordinates  (Angst):
   2.83467734  0.00000000 -1.61411859
   0.00000000  0.00000000  3.26202000
  -0.95795974  2.66790344 -1.61411859
   1.87671760  2.66790344  0.03378282
   0.93835880  1.33395172 -1.61411859
   3.77307368  1.33400508 -3.22817127
   2.81507640  4.00185516 -4.84235578
  -0.01963847  4.00180181  3.29573690
   0.93843465  1.33389836  1.64790141
   2.81500055  4.00190852 -1.58033578
   0.00000000  0.00000000  0.00000000
   1.87671760  2.66790344 -3.22823718

 k-point   1 :   0.0000 0.0000 0.0000  plane waves:    6575
 k-point   2 :   0.1429 0.0000 0.0000  plane waves:    6574
 k-point   3 :   0.2857-0.0000 0.0000  plane waves:    6566
 k-point   4 :   0.4286-0.0000 0.0000  plane waves:    6581
 k-point   5 :   0.1429 0.1429 0.0000  plane waves:    6571
 k-point   6 :   0.2857 0.1429 0.0000  plane waves:    6586
 k-point   7 :   0.4286 0.1429 0.0000  plane waves:    6586
 k-point   8 :  -0.4286 0.1429 0.0000  plane waves:    6584
 k-point   9 :  -0.2857 0.1429 0.0000  plane waves:    6572
 k-point  10 :  -0.1429 0.1429 0.0000  plane waves:    6567
 k-point  11 :   0.2857 0.2857 0.0000  plane waves:    6581
 k-point  12 :   0.4286 0.2857 0.0000  plane waves:    6601
 k-point  13 :  -0.4286 0.2857 0.0000  plane waves:    6586
 k-point  14 :  -0.2857 0.2857 0.0000  plane waves:    6574
 k-point  15 :   0.4286 0.4286 0.0000  plane waves:    6591
 k-point  16 :  -0.4286 0.4286 0.0000  plane waves:    6572
 k-point  17 :   0.0000-0.0000 0.1250  plane waves:    6575
 k-point  18 :   0.1429-0.0000 0.1250  plane waves:    6572
 k-point  19 :   0.2857 0.0000 0.1250  plane waves:    6581
 k-point  20 :   0.4286-0.0000 0.1250  plane waves:    6586
 k-point  21 :  -0.4286-0.0000 0.1250  plane waves:    6584
 k-point  22 :  -0.2857 0.0000 0.1250  plane waves:    6575
 k-point  23 :  -0.1429-0.0000 0.1250  plane waves:    6573
 k-point  24 :   0.1429 0.1429 0.1250  plane waves:    6585
 k-point  25 :   0.2857 0.1429 0.1250  plane waves:    6583
 k-point  26 :   0.4286 0.1429 0.1250  plane waves:    6587
 k-point  27 :  -0.4286 0.1429 0.1250  plane waves:    6578
 k-point  28 :  -0.2857 0.1429 0.1250  plane waves:    6569
 k-point  29 :  -0.1429 0.1429 0.1250  plane waves:    6557
 k-point  30 :   0.2857 0.2857 0.1250  plane waves:    6608
 k-point  31 :   0.4286 0.2857 0.1250  plane waves:    6598
 k-point  32 :  -0.4286 0.2857 0.1250  plane waves:    6587
 k-point  33 :  -0.2857 0.2857 0.1250  plane waves:    6584
 k-point  34 :  -0.1429 0.2857 0.1250  plane waves:    6572
 k-point  35 :   0.4286 0.4286 0.1250  plane waves:    6591
 k-point  36 :  -0.4286 0.4286 0.1250  plane waves:    6589
 k-point  37 :  -0.2857 0.4286 0.1250  plane waves:    6588
 k-point  38 :  -0.1429 0.4286 0.1250  plane waves:    6583
 k-point  39 :  -0.4286-0.4286 0.1250  plane waves:    6600
 k-point  40 :  -0.2857-0.4286 0.1250  plane waves:    6588
 k-point  41 :  -0.1429-0.4286 0.1250  plane waves:    6590
 k-point  42 :  -0.2857-0.2857 0.1250  plane waves:    6585
 k-point  43 :  -0.1429-0.2857 0.1250  plane waves:    6575
 k-point  44 :  -0.1429-0.1429 0.1250  plane waves:    6580
 k-point  45 :   0.0000-0.0000 0.2500  plane waves:    6575
 k-point  46 :   0.1429-0.0000 0.2500  plane waves:    6576
 k-point  47 :   0.2857 0.0000 0.2500  plane waves:    6594
 k-point  48 :   0.4286-0.0000 0.2500  plane waves:    6579
 k-point  49 :  -0.4286 0.0000 0.2500  plane waves:    6576
 k-point  50 :  -0.2857-0.0000 0.2500  plane waves:    6571
 k-point  51 :  -0.1429-0.0000 0.2500  plane waves:    6566
 k-point  52 :   0.1429 0.1429 0.2500  plane waves:    6585
 k-point  53 :   0.2857 0.1429 0.2500  plane waves:    6610
 k-point  54 :   0.4286 0.1429 0.2500  plane waves:    6602
 k-point  55 :  -0.4286 0.1429 0.2500  plane waves:    6589
 k-point  56 :  -0.2857 0.1429 0.2500  plane waves:    6575
 k-point  57 :  -0.1429 0.1429 0.2500  plane waves:    6586
 k-point  58 :   0.2857 0.2857 0.2500  plane waves:    6615
 k-point  59 :   0.4286 0.2857 0.2500  plane waves:    6595
 k-point  60 :  -0.4286 0.2857 0.2500  plane waves:    6593
[...]
 k-point 102 :   0.1429-0.0000 0.5000  plane waves:    6582
 k-point 103 :   0.2857-0.0000 0.5000  plane waves:    6583
 k-point 104 :   0.4286-0.0000 0.5000  plane waves:    6574
 k-point 105 :   0.1429 0.1429 0.5000  plane waves:    6588
 k-point 106 :   0.2857 0.1429 0.5000  plane waves:    6591
 k-point 107 :   0.4286 0.1429 0.5000  plane waves:    6581
 k-point 108 :  -0.4286 0.1429 0.5000  plane waves:    6590
 k-point 109 :  -0.2857 0.1429 0.5000  plane waves:    6609
 k-point 110 :  -0.1429 0.1429 0.5000  plane waves:    6600
 k-point 111 :   0.2857 0.2857 0.5000  plane waves:    6579
 k-point 112 :   0.4286 0.2857 0.5000  plane waves:    6595
 k-point 113 :  -0.4286 0.2857 0.5000  plane waves:    6599
 k-point 114 :  -0.2857 0.2857 0.5000  plane waves:    6614
 k-point 115 :   0.4286 0.4286 0.5000  plane waves:    6596
 k-point 116 :  -0.4286 0.4286 0.5000  plane waves:    6592

 maximum and minimum number of plane-waves per node :      3329     3257

 maximum number of plane-waves:      6615
 maximum index in each direction:
   IXMAX=   13   IYMAX=   13   IZMAX=   13
   IXMIN=  -13   IYMIN=  -13   IZMIN=  -13

 parallel 3D FFT for wavefunctions:
    minimum data exchange during FFTs selected (reduces bandwidth)
 parallel 3D FFT for charge:
    minimum data exchange during FFTs selected (reduces bandwidth)

 Broyden mixing: mesh for mixing (old mesh)
   NGX = 27   NGY = 27   NGZ = 27
  (NGX  =108   NGY  =108   NGZ  =108)
  gives a total of  19683 points

 initial charge density was supplied:
 charge density of overlapping atoms calculated
 number of electron     104.0000000 magnetization
 keeping initial charge density in first step

 Maximum index for augmentation-charges        22454 (set IRDMAX)

 First call to EWALD:  gamma=   0.304
 Maximum number of real-space cells 3x 3x 3
 Maximum number of reciprocal cells 3x 3x 3

--------------------------------------- Iteration      1(   1)  ---------------------------------------

 eigenvalue-minimisations  : 16200
 total energy-change (2. order) : 0.1052396E+04  (-0.6955172E+04)
 number of electron     104.0000000 magnetization
 augmentation part      104.0000000 magnetization

 Free energy of the ion-electron system (eV)
  alpha Z        PSCENC =       473.40441854
  Ewald energy   TEWEN  =     -8368.59802549
  -Hartree energ DENC   =     -3072.16545199
  -exchange      EXHF   =         0.00000000
  -V(xc)+E(xc)   XCENC  =       478.54474098
  PAW double counting   =      9250.47132855    -9210.50234729
  entropy T*S    EENTRO =        -0.00048660
  eigenvalues    EBANDS =      -163.26521397
  atomic energy  EATOM  =     11664.50664672
  free energy    TOTEN  =      1052.39560946 eV

  energy without entropy =     1052.39609605  energy(sigma->0) =     1052.39585276

[...]

 eigenvalue-minimisations  : 17448
 total energy-change (2. order) :-0.1239301E+04  (-0.1211535E+04)
 number of electron     104.0000000 magnetization
 augmentation part      104.0000000 magnetization

[...]

 eigenvalue-minimisations  :     0
 total energy-change (2. order) :-0.1898479E-07  ( 0.1356680E-07)
 number of electron     104.0000001 magnetization
 augmentation part       14.1174611 magnetization

[...]

 eigenvalue-minimisations  :     0
 total energy-change (2. order) : 0.1908120E-08  (-0.3526615E-09)
 number of electron     104.0000001 magnetization
 augmentation part       14.1174488 magnetization

[...]

--------------------------------------- Iteration      1(  41)  ---------------------------------------

 eigenvalue-minimisations  :     0
 total energy-change (2. order) :-0.1873559E-09  (-0.2267555E-09)
 number of electron     104.0000001 magnetization
 augmentation part       14.1174483 magnetization

 Free energy of the ion-electron system (eV)
  alpha Z        PSCENC =       473.40441854
  Ewald energy   TEWEN  =     -8368.59802549
  -Hartree energ DENC   =     -2932.08640261
  -exchange      EXHF   =         0.00000000
  -V(xc)+E(xc)   XCENC  =       486.90036688
  PAW double counting   =     12787.59944382   -12765.90976977
  entropy T*S    EENTRO =        -0.00166213
  eigenvalues    EBANDS =     -1538.34172634
  atomic energy  EATOM  =     11664.50664672
  free energy    TOTEN  =      -192.52671038 eV

  energy without entropy =     -192.52504825  energy(sigma->0) =     -192.52587932

  average scaling for gradient   0.7147

 average (electrostatic) potential at core
  the test charge radii are     0.7672  1.0818  0.9892
  (the norm of the test charge is              1.0000)
       1 -27.1682       2 -27.1680       3 -27.1682       4 -27.1680       5 -80.0537
       6 -79.6542       7 -80.0537       8 -79.6542       9 -79.6541      10 -79.6541
      11 -84.6109      12 -84.6109

 E-fermi :   7.1377     XC(G=0): -11.8320     alpha+bet :-14.1790

 Fermi energy:         7.1376651982

 k-point     1 :       0.0000    0.0000    0.0000
  band No.  band energies     occupation
      1     -56.0844      2.00000
      2     -56.0826      2.00000
      3     -55.6946      2.00000
      4     -55.6814      2.00000
      5     -55.6812      2.00000
      6     -55.6676      2.00000
      7     -29.7472      2.00000
      8     -29.6793      2.00000
      9     -29.4792      2.00000
     10     -29.4790      2.00000
     11     -29.4758      2.00000
     12     -29.4757      2.00000
     13     -29.2660      2.00000
     14     -29.2001      2.00000
     15     -29.1999      2.00000
     16     -29.1518      2.00000
     17     -29.1487      2.00000
     18     -29.1220      2.00000
     19     -29.1218      2.00000
     20     -29.1056      2.00000
     21     -28.9914      2.00000
     22     -28.8717      2.00000
     23     -28.8717      2.00000
     24     -28.7997      2.00000
     25      -3.9534      2.00000
     26      -1.2847      2.00000
     27      -0.3076      2.00000
     28      -0.0399      2.00000
     29       0.6488      2.00000
     30       0.9652      2.00000
     31       0.9653      2.00000
     32       1.3398      2.00000
     33       1.3400      2.00000
     34       2.9348      2.00000
     35       3.2051      2.00000
     36       3.4956      2.00000
     37       3.4958      2.00000
     38       3.5233      2.00000
     39       3.6915      2.00000
     40       3.6916      2.00000
     41       4.1031      2.00000
     42       4.7986      2.00000
     43       4.8775      2.00000
     44       4.8775      2.00000
     45       5.0195      2.00000
     46       6.2912      2.00000
     47       6.5508      2.00000
     48       6.5509      2.00000
     49       6.5549      2.00000
     50       7.1065      1.97235
     51       7.3372      0.00000
     52       7.5486      0.00000
     53       7.5487      0.00000
     54       7.9097      0.00000
     55       8.3109      0.00000
     56       8.3332      0.00000
     57       8.5112      0.00000
     58       8.5255      0.00000
     59       8.6055      0.00000
     60       8.6057      0.00000
     61       8.8082      0.00000
     62       8.8082      0.00000
     63       9.2543      0.00000
     64       9.7624      0.00000
     65       9.7689      0.00000
     66       9.8903      0.00000

[...]

 k-point   116 :      -0.4286    0.4286    0.5000
  band No.  band energies     occupation
      1     -56.0832      2.00000
      2     -56.0826      2.00000
      3     -55.6956      2.00000
      4     -55.6813      2.00000
      5     -55.6812      2.00000
      6     -55.6680      2.00000
      7     -29.6583      2.00000
      8     -29.6431      2.00000
      9     -29.4362      2.00000
     10     -29.4345      2.00000
     11     -29.4323      2.00000
     12     -29.4316      2.00000
     13     -29.3570      2.00000
     14     -29.2442      2.00000
     15     -29.2428      2.00000
     16     -29.1877      2.00000
     17     -29.1700      2.00000
     18     -29.1691      2.00000
     19     -29.1520      2.00000
     20     -29.1083      2.00000
     21     -28.9895      2.00000
     22     -28.8725      2.00000
     23     -28.8725      2.00000
     24     -28.8024      2.00000
     25      -2.6639      2.00000
     26      -1.8380      2.00000
     27      -0.9596      2.00000
     28      -0.2422      2.00000
     29      -0.2173      2.00000
     30       0.8158      2.00000
     31       2.2075      2.00000
     32       2.2252      2.00000
     33       2.5559      2.00000
     34       3.1421      2.00000
     35       3.3557      2.00000
     36       3.5090      2.00000
     37       3.6112      2.00000
     38       3.7497      2.00000
     39       3.7873      2.00000
     40       3.8338      2.00000
     41       3.8355      2.00000
     42       3.9280      2.00000
     43       4.1806      2.00000
     44       4.3417      2.00000
     45       4.3543      2.00000
     46       4.5433      2.00000
     47       5.1811      2.00000
     48       6.1276      2.00000
     49       6.2027      2.00000
     50       6.5080      2.00000
     51       6.5698      2.00000
     52       6.5751      2.00000
     53       6.9209      2.00000
     54       6.9329      2.00000
     55       7.3985      0.00000
     56       8.1161      0.00000
     57       8.8309      0.00000
     58       9.2545      0.00000
     59       9.4950      0.00000
     60       9.5946      0.00000
     61       9.8452      0.00000
     62       9.9820      0.00000
     63      10.1597      0.00000
     64      10.1732      0.00000
     65      10.2654      0.00000
     66      10.6865      0.00000

 soft charge-density along one line, spin component           1
         0         1         2         3         4         5         6         7         8         9
 total charge-density along one line

------------------------ aborting loop because EDIFF is reached ----------------------------------------

  FREE ENERGIE OF THE ION-ELECTRON SYSTEM (eV)
  free  energy   TOTEN  =      -192.52671038 eV

  energy  without entropy=     -192.52504825  energy(sigma->0) =     -192.52587932

 writing wavefunctions