 vasp.6.2.0 18Jan21 (build Jan 05 2022 15:41:44) complex

 executed on             LinuxIFC date 2025.05.07  21:18:59

 INCAR:
   SYSTEM = routine with relax: pwdword
   ICHARG = 2
   NPAR = 6
   KPAR = 2
   NCORE = 2
   ADDGRID = T
   PREC = Acc
   ENCUT = 600
   METAGGA = R2SCAN
   LASPH = .TRUE.
   LMIXTAU = .FALSE.
   ALGO = A
   EDIFF = 1E-9
   NELM = 100
   NELMIN = 6
   IALGO = 38
   LREAL = F
   NSW = 0
   ISIF = -1
   ISMEAR = 0
   SIGMA = 0.02

 POTCAR:    PAW_PBE B 06Sep2000
 POTCAR:    PAW_PBE Mo_sv 02Feb2006
|           W    W    AA    RRRRR   N    N  II  N    N   GGGG   !!!           |
|           W    W   A  A   R    R  NN   N  II  NN   N  G    G  !!!           |
|           W    W  A    A  R    R  N N  N  II  N N  N  G       !!!           |
|           W WW W  AAAAAA  RRRRR   N  N N  II  N  N N  G  GGG   !            |
|           WW  WW  A    A  R   R   N   NN  II  N   NN  G    G                |
|           W    W  A    A  R    R  N    N  II  N    N   GGGG   !!!           |
|     For optimal performance we recommend to set                             |
|       NCORE = 2 up to number-of-cores-per-socket                            |
|     This setting can greatly improve the performance of VASP for DFT.       |
|     The default, NCORE=1 might be grossly inefficient on modern             |
|     multi-core architectures or massively parallel machines. Do your        |
|     Unfortunately you need to use the default for GW and RPA                |
|     calculations (for HF NCORE is supported but not extensively tested      |
|     yet).                                                                   |

 POTCAR:    PAW_PBE B 06Sep2000
   VRHFIN =B: s2p1

   TITEL  = PAW_PBE B 06Sep2000
   POMASS =   10.811; ZVAL   =    3.000    mass and valenz
   ENMAX  =  318.614; ENMIN  =  238.960 eV

 POTCAR:    PAW_PBE Mo_sv 02Feb2006
   VRHFIN =Mo: 4p5s4d

   TITEL  = PAW_PBE Mo_sv 02Feb2006
   POMASS =   95.940; ZVAL   =   14.000    mass and valenz
   ENMAX  =  242.676; ENMIN  =  182.007 eV

  PAW_PBE B 06Sep2000                   :
  PAW_PBE Mo_sv 02Feb2006               :

 POSCAR: EA247
  positions in direct lattice

 METAGGA = R2SCA    LMAXTAU =  6    LMIXTAU =  F

 ion  position               nearest neighbor table
   1  0.335  0.665  0.000-   6 1.72   5 1.74   4 1.74   7 2.33   8 2.33   8 2.34   7 2.34
   2  0.000  0.335  0.665-   4 1.72   6 1.74   5 1.74   7 2.33   8 2.33   8 2.34   7 2.34
   3  0.665  0.000  0.335-   5 1.72   6 1.74   4 1.74   8 2.33   7 2.33   7 2.34   8 2.34
   4  0.000  0.665  0.335-   2 1.72   1 1.74   3 1.74   8 2.33   7 2.33   7 2.34   8 2.34
   5  0.335  0.000  0.665-   3 1.72   1 1.74   2 1.74   7 2.33   8 2.33   8 2.34   7 2.34
   6  0.665  0.335  0.000-   1 1.72   2 1.74   3 1.74   7 2.33   8 2.33   8 2.34   7 2.34
   7  0.835  0.835  0.835-   2 2.33   5 2.33   4 2.33   3 2.33   1 2.33   6 2.33   6 2.34   1 2.34
                             3 2.34   4 2.34   2 2.34   5 2.34   8 3.01   8 3.01   8 3.01   8 3.08
   8  0.165  0.165  0.165-   3 2.33   4 2.33   2 2.33   5 2.33   1 2.33   6 2.33   6 2.34   1 2.34
                             2 2.34   5 2.34   3 2.34   4 2.34   7 3.01   7 3.01   7 3.01   7 3.08

  LATTYP: Found a trigonal (rhomboedric) cell.
 ALAT       =     4.3320521643
 COS(alpha) =     0.2779178508

  Lattice vectors:

 A1 = (   3.4628211900,  -2.6029869100,   0.0021229500)
 A2 = (   3.4628211900,   2.6029869100,   0.0021229500)
 A3 = (   1.5036796000,   0.0000000000,   4.0627113300)

Analysis of symmetry for initial positions (statically):
 Subroutine PRICEL returns:
 Original cell was already a primitive cell.

 Routine SETGRP: Setting up the symmetry group for a
 trigonal (rhombohedral) supercell.

 Subroutine GETGRP returns: Found 12 space group operations
 (whereof 12 operations were pure point group operations)
 out of a pool of 12 trial point group operations.

The static configuration has the point symmetry D_3d.

Analysis of symmetry for dynamics (positions and initial velocities):
 Subroutine PRICEL returns:
 Original cell was already a primitive cell.

 Routine SETGRP: Setting up the symmetry group for a
 trigonal (rhombohedral) supercell.

 Subroutine GETGRP returns: Found 12 space group operations
 (whereof 12 operations were pure point group operations)
 out of a pool of 12 trial point group operations.

The dynamic configuration has the point symmetry D_3d.

 Subroutine INISYM returns: Found 12 space group operations
 (whereof 12 operations are pure point group operations),
 and found     1 'primitive' translations

                                     Primitive cell

  volume of cell :      73.2233

  direct lattice vectors                    reciprocal lattice vectors
     3.462821190 -2.602986910  0.002122950     0.144423709 -0.192087021 -0.053453708
     3.462821190  2.602986910  0.002122950     0.144423709  0.192087021 -0.053453708
     1.503679600  0.000000000  4.062711330    -0.000150936  0.000000000  0.246196906

  length of vectors
     4.332052164  4.332052164  4.332052134     0.246196933  0.246196933  0.246196952

  position of ions in fractional coordinates (direct lattice)
     0.334931870  0.665068130  0.000000000
     1.000000000  0.334931870  0.665068130
     0.665068130  1.000000000  0.334931870
     1.000000000  0.665068130  0.334931870
     0.334931870  1.000000000  0.665068130
     0.665068130  0.334931870  0.000000000
     0.835231640  0.835231640  0.835231640
     0.164768360  0.164768360  0.164768360

  ion indices of the primitive-cell ions
   primitive index   ion index
                 1           1
                 2           2
                 3           3
                 4           4
                 5           5
                 6           6
                 7           7
                 8           8

 KPOINTS: EA

Automatic generation of k-mesh.
 Grid dimensions read from file:
 generate k-points for:    9    9    9

 Generating k-lattice:

  Cartesian coordinates                     Fractional coordinates (reciprocal lattice)
     0.016047079 -0.021343002 -0.005939301     0.111111111 -0.000000000 -0.000000000
     0.016047079  0.021343002 -0.005939301    -0.000000000  0.111111111 -0.000000000
    -0.000016771  0.000000000  0.027355212     0.000000000  0.000000000  0.111111111

  Length of vectors
     0.027355215  0.027355215  0.027355217

  Shift w.r.t. Gamma in fractional coordinates (k-lattice)
     0.000000000  0.000000000  0.000000000

 Subroutine IBZKPT returns following result:

 Found     85 irreducible k-points:

 Following reciprocal coordinates:
            Coordinates               Weight
  0.000000  0.000000  0.000000      1.000000
  0.111111 -0.000000  0.000000      6.000000
  0.222222 -0.000000  0.000000      6.000000
  0.333333 -0.000000  0.000000      6.000000
  0.444444 -0.000000  0.000000      6.000000
  0.111111  0.111111  0.000000      6.000000
  0.222222  0.111111  0.000000     12.000000
  0.333333  0.111111  0.000000     12.000000
  0.444444  0.111111  0.000000     12.000000
 -0.444444  0.111111 -0.000000     12.000000
 -0.333333  0.111111  0.000000     12.000000
 -0.222222  0.111111 -0.000000     12.000000
 -0.111111  0.111111  0.000000      6.000000
  0.222222  0.222222  0.000000      6.000000
  0.333333  0.222222  0.000000     12.000000
  0.444444  0.222222  0.000000     12.000000
 -0.444444  0.222222 -0.000000     12.000000
 -0.333333  0.222222  0.000000     12.000000
 -0.222222  0.222222  0.000000      6.000000
  0.333333  0.333333  0.000000      6.000000
  0.444444  0.333333  0.000000     12.000000
 -0.444444  0.333333 -0.000000     12.000000
 -0.333333  0.333333  0.000000      6.000000
  0.444444  0.444444  0.000000      6.000000
 -0.444444  0.444444  0.000000      6.000000
  0.111111  0.111111  0.111111      2.000000
  0.222222  0.111111  0.111111      6.000000
  0.333333  0.111111  0.111111      6.000000
  0.444444  0.111111  0.111111      6.000000
 -0.444444  0.111111  0.111111      6.000000
 -0.333333  0.111111  0.111111      6.000000
 -0.222222  0.111111  0.111111      6.000000
 -0.111111  0.111111  0.111111      6.000000
  0.222222  0.222222  0.111111      6.000000
  0.333333  0.222222  0.111111     12.000000
  0.444444  0.222222  0.111111     12.000000
 -0.444444  0.222222  0.111111     12.000000
 -0.333333  0.222222  0.111111     12.000000
 -0.222222  0.222222  0.111111     12.000000
 -0.111111  0.222222  0.111111     12.000000
  0.333333  0.333333  0.111111      6.000000
  0.444444  0.333333  0.111111     12.000000
 -0.444444  0.333333  0.111111     12.000000
 -0.333333  0.333333  0.111111     12.000000
 -0.222222  0.333333  0.111111     12.000000
 -0.111111  0.333333  0.111111     12.000000
  0.444444  0.444444  0.111111      6.000000
 -0.444444  0.444444  0.111111     12.000000
 -0.333333  0.444444  0.111111     12.000000
 -0.222222  0.444444  0.111111     12.000000
 -0.111111  0.444444  0.111111     12.000000
 -0.444444 -0.444444  0.111111      6.000000
 -0.333333 -0.444444  0.111111     12.000000
 -0.222222 -0.444444  0.111111     12.000000
 -0.333333 -0.333333  0.111111      6.000000
 -0.222222 -0.333333  0.111111     12.000000
 -0.222222 -0.222222  0.111111      6.000000
  0.222222  0.222222  0.222222      2.000000
  0.333333  0.222222  0.222222      6.000000
  0.444444  0.222222  0.222222      6.000000
[...]
 -0.333333  0.444444  0.222222     12.000000
 -0.222222  0.444444  0.222222     12.000000
 -0.444444 -0.444444  0.222222      6.000000
 -0.333333 -0.444444  0.222222     12.000000
 -0.333333 -0.333333  0.222222      6.000000
  0.333333  0.333333  0.333333      2.000000
  0.444444  0.333333  0.333333      6.000000
 -0.444444  0.333333  0.333333      6.000000
 -0.333333  0.333333  0.333333      6.000000
  0.444444  0.444444  0.333333      6.000000
 -0.444444  0.444444  0.333333     12.000000
 -0.333333  0.444444  0.333333     12.000000
 -0.444444 -0.444444  0.333333      6.000000
  0.444444  0.444444  0.444444      2.000000
 -0.444444  0.444444  0.444444      6.000000

 Following cartesian coordinates:
            Coordinates               Weight
  0.000000  0.000000  0.000000      1.000000
  0.016047 -0.021343 -0.005939      6.000000
  0.032094 -0.042686 -0.011879      6.000000
  0.048141 -0.064029 -0.017818      6.000000
  0.064188 -0.085372 -0.023757      6.000000
  0.032094  0.000000 -0.011879      6.000000
  0.048141 -0.021343 -0.017818     12.000000
  0.064188 -0.042686 -0.023757     12.000000
  0.080235 -0.064029 -0.029697     12.000000
 -0.048141  0.106715  0.017818     12.000000
 -0.032094  0.085372  0.011879     12.000000
 -0.016047  0.064029  0.005939     12.000000
  0.000000  0.042686  0.000000      6.000000
  0.064188  0.000000 -0.023757      6.000000
  0.080235 -0.021343 -0.029697     12.000000
  0.096282 -0.042686 -0.035636     12.000000
 -0.032094  0.128058  0.011879     12.000000
 -0.016047  0.106715  0.005939     12.000000
  0.000000  0.085372  0.000000      6.000000
  0.096282  0.000000 -0.035636      6.000000
  0.112330 -0.021343 -0.041575     12.000000
 -0.016047  0.149401  0.005939     12.000000
  0.000000  0.128058  0.000000      6.000000
  0.128377  0.000000 -0.047514      6.000000
[...]
  -0.11234632 -0.02134300  0.06893032       0.016
  -0.09629924 -0.04268600  0.06299102       0.016
  -0.09629924  0.00000000  0.06299102       0.008
  -0.08025216 -0.02134300  0.05705172       0.016
  -0.06420509  0.00000000  0.05111242       0.008
   0.06415477  0.00000000  0.03095322       0.003
   0.08020185 -0.02134300  0.02501392       0.008
   0.09624893 -0.04268600  0.01907462       0.008
[...]
   0.01601354  0.14940102  0.04877112       0.016
   0.03206062  0.12805801  0.04283182       0.016
  -0.12841017  0.00000000  0.10222483       0.008
  -0.11236309 -0.02134300  0.09628553       0.016
  -0.09631601  0.00000000  0.09034623       0.008
   0.09623216  0.00000000  0.04642983       0.003
   0.11227924 -0.02134300  0.04049053       0.008
  -0.01609739  0.14940102  0.08800494       0.008
  -0.00005031  0.12805801  0.08206564       0.008
   0.12832632  0.00000000  0.03455123       0.008
  -0.00005031  0.17074402  0.08206564       0.016
   0.01599677  0.14940102  0.07612633       0.016
  -0.12842694  0.00000000  0.12958004       0.008
   0.12830955  0.00000000  0.06190644       0.003
  -0.00006708  0.17074402  0.10942085       0.008

 k-points in reciprocal lattice and weights: EA
   0.00000000  0.00000000  0.00000000       0.001
   0.11111111 -0.00000000  0.00000000       0.008
   0.22222222 -0.00000000  0.00000000       0.008
   0.33333333 -0.00000000  0.00000000       0.008
   0.44444444 -0.00000000  0.00000000       0.008
   0.11111111  0.11111111  0.00000000       0.008
   0.22222222  0.11111111  0.00000000       0.016
   0.33333333  0.11111111  0.00000000       0.016
   0.44444444  0.11111111  0.00000000       0.016
  -0.44444444  0.11111111 -0.00000000       0.016
  -0.33333333  0.11111111  0.00000000       0.016
  -0.22222222  0.11111111 -0.00000000       0.016
  -0.11111111  0.11111111  0.00000000       0.008
   0.22222222  0.22222222  0.00000000       0.008
   0.33333333  0.22222222  0.00000000       0.016
   0.44444444  0.22222222  0.00000000       0.016
  -0.44444444  0.22222222 -0.00000000       0.016
  -0.33333333  0.22222222  0.00000000       0.016
  -0.22222222  0.22222222  0.00000000       0.008
   0.33333333  0.33333333  0.00000000       0.008
   0.44444444  0.33333333  0.00000000       0.016
  -0.44444444  0.33333333 -0.00000000       0.016
  -0.33333333  0.33333333  0.00000000       0.008
   0.44444444  0.44444444  0.00000000       0.008
  -0.44444444  0.44444444  0.00000000       0.008
   0.11111111  0.11111111  0.11111111       0.003
   0.22222222  0.11111111  0.11111111       0.008
   0.33333333  0.11111111  0.11111111       0.008
   0.44444444  0.11111111  0.11111111       0.008
  -0.44444444  0.11111111  0.11111111       0.008
  -0.33333333  0.11111111  0.11111111       0.008
  -0.22222222  0.11111111  0.11111111       0.008
  -0.11111111  0.11111111  0.11111111       0.008
   0.22222222  0.22222222  0.11111111       0.008
   0.33333333  0.22222222  0.11111111       0.016
   0.44444444  0.22222222  0.11111111       0.016
  -0.44444444  0.22222222  0.11111111       0.016
  -0.33333333  0.22222222  0.11111111       0.016
  -0.22222222  0.22222222  0.11111111       0.016
  -0.11111111  0.22222222  0.11111111       0.016
   0.33333333  0.33333333  0.11111111       0.008
   0.44444444  0.33333333  0.11111111       0.016
  -0.44444444  0.33333333  0.11111111       0.016
  -0.33333333  0.33333333  0.11111111       0.016
  -0.22222222  0.33333333  0.11111111       0.016
  -0.11111111  0.33333333  0.11111111       0.016
   0.44444444  0.44444444  0.11111111       0.008
  -0.44444444  0.44444444  0.11111111       0.016
  -0.33333333  0.44444444  0.11111111       0.016
  -0.22222222  0.44444444  0.11111111       0.016
  -0.11111111  0.44444444  0.11111111       0.016
  -0.44444444 -0.44444444  0.11111111       0.008
  -0.33333333 -0.44444444  0.11111111       0.016
  -0.22222222 -0.44444444  0.11111111       0.016
  -0.33333333 -0.33333333  0.11111111       0.008
  -0.22222222 -0.33333333  0.11111111       0.016
  -0.22222222 -0.22222222  0.11111111       0.008
   0.22222222  0.22222222  0.22222222       0.003
   0.33333333  0.22222222  0.22222222       0.008
   0.44444444  0.22222222  0.22222222       0.008
[...]
  -0.33333333  0.44444444  0.22222222       0.016
  -0.22222222  0.44444444  0.22222222       0.016
  -0.44444444 -0.44444444  0.22222222       0.008
  -0.33333333 -0.44444444  0.22222222       0.016
  -0.33333333 -0.33333333  0.22222222       0.008
   0.33333333  0.33333333  0.33333333       0.003
   0.44444444  0.33333333  0.33333333       0.008
  -0.44444444  0.33333333  0.33333333       0.008
  -0.33333333  0.33333333  0.33333333       0.008
   0.44444444  0.44444444  0.33333333       0.008
  -0.44444444  0.44444444  0.33333333       0.016
  -0.33333333  0.44444444  0.33333333       0.016
  -0.44444444 -0.44444444  0.33333333       0.008
   0.44444444  0.44444444  0.44444444       0.003
  -0.44444444  0.44444444  0.44444444       0.008

 position of ions in fractional coordinates (direct lattice)
   0.33493187  0.66506813  0.00000000
   0.00000000  0.33493187  0.66506813
   0.66506813  0.00000000  0.33493187
   0.00000000  0.66506813  0.33493187
   0.33493187  0.00000000  0.66506813
   0.66506813  0.33493187  0.00000000
   0.83523164  0.83523164  0.83523164
   0.16476836  0.16476836  0.16476836

 position of ions in cartesian coordinates  (Angst):
   3.46282119  0.85934036  0.00212295
   2.15985856  0.87182327  2.70269087
   2.80664223 -1.73116364  1.36214341
   2.80664223  1.73116364  1.36214341
   2.15985856 -0.87182327  2.70269087
   3.46282119 -0.85934036  0.00212295
   7.04043642  0.00000000  3.39685136
   1.38888556  0.00000000  0.67010587

 k-point   1 :   0.0000 0.0000 0.0000  plane waves:    2443
 k-point   2 :   0.1111-0.0000 0.0000  plane waves:    2457
 k-point   3 :   0.2222-0.0000 0.0000  plane waves:    2456
 k-point   4 :   0.3333-0.0000 0.0000  plane waves:    2432
 k-point   5 :   0.4444-0.0000 0.0000  plane waves:    2437
 k-point   6 :   0.1111 0.1111 0.0000  plane waves:    2454
 k-point   7 :   0.2222 0.1111 0.0000  plane waves:    2454
 k-point   8 :   0.3333 0.1111 0.0000  plane waves:    2438
 k-point   9 :   0.4444 0.1111 0.0000  plane waves:    2452
 k-point  10 :  -0.4444 0.1111-0.0000  plane waves:    2444
 k-point  11 :  -0.3333 0.1111 0.0000  plane waves:    2446
 k-point  12 :  -0.2222 0.1111-0.0000  plane waves:    2459
 k-point  13 :  -0.1111 0.1111 0.0000  plane waves:    2455
 k-point  14 :   0.2222 0.2222 0.0000  plane waves:    2454
 k-point  15 :   0.3333 0.2222 0.0000  plane waves:    2446
 k-point  16 :   0.4444 0.2222 0.0000  plane waves:    2446
 k-point  17 :  -0.4444 0.2222-0.0000  plane waves:    2434
 k-point  18 :  -0.3333 0.2222 0.0000  plane waves:    2439
 k-point  19 :  -0.2222 0.2222 0.0000  plane waves:    2456
 k-point  20 :   0.3333 0.3333 0.0000  plane waves:    2455
 k-point  21 :   0.4444 0.3333 0.0000  plane waves:    2447
 k-point  22 :  -0.4444 0.3333-0.0000  plane waves:    2435
 k-point  23 :  -0.3333 0.3333 0.0000  plane waves:    2432
 k-point  24 :   0.4444 0.4444 0.0000  plane waves:    2447
 k-point  25 :  -0.4444 0.4444 0.0000  plane waves:    2448
 k-point  26 :   0.1111 0.1111 0.1111  plane waves:    2470
 k-point  27 :   0.2222 0.1111 0.1111  plane waves:    2457
 k-point  28 :   0.3333 0.1111 0.1111  plane waves:    2432
 k-point  29 :   0.4444 0.1111 0.1111  plane waves:    2436
 k-point  30 :  -0.4444 0.1111 0.1111  plane waves:    2441
 k-point  31 :  -0.3333 0.1111 0.1111  plane waves:    2439
 k-point  32 :  -0.2222 0.1111 0.1111  plane waves:    2451
 k-point  33 :  -0.1111 0.1111 0.1111  plane waves:    2464
 k-point  34 :   0.2222 0.2222 0.1111  plane waves:    2455
 k-point  35 :   0.3333 0.2222 0.1111  plane waves:    2444
 k-point  36 :   0.4444 0.2222 0.1111  plane waves:    2442
 k-point  37 :  -0.4444 0.2222 0.1111  plane waves:    2441
 k-point  38 :  -0.3333 0.2222 0.1111  plane waves:    2432
 k-point  39 :  -0.2222 0.2222 0.1111  plane waves:    2435
 k-point  40 :  -0.1111 0.2222 0.1111  plane waves:    2449
 k-point  41 :   0.3333 0.3333 0.1111  plane waves:    2455
 k-point  42 :   0.4444 0.3333 0.1111  plane waves:    2445
 k-point  43 :  -0.4444 0.3333 0.1111  plane waves:    2447
 k-point  44 :  -0.3333 0.3333 0.1111  plane waves:    2434
 k-point  45 :  -0.2222 0.3333 0.1111  plane waves:    2440
 k-point  46 :  -0.1111 0.3333 0.1111  plane waves:    2450
 k-point  47 :   0.4444 0.4444 0.1111  plane waves:    2458
 k-point  48 :  -0.4444 0.4444 0.1111  plane waves:    2449
 k-point  49 :  -0.3333 0.4444 0.1111  plane waves:    2441
 k-point  50 :  -0.2222 0.4444 0.1111  plane waves:    2433
 k-point  51 :  -0.1111 0.4444 0.1111  plane waves:    2443
 k-point  52 :  -0.4444-0.4444 0.1111  plane waves:    2442
 k-point  53 :  -0.3333-0.4444 0.1111  plane waves:    2445
 k-point  54 :  -0.2222-0.4444 0.1111  plane waves:    2442
 k-point  55 :  -0.3333-0.3333 0.1111  plane waves:    2450
 k-point  56 :  -0.2222-0.3333 0.1111  plane waves:    2453
 k-point  57 :  -0.2222-0.2222 0.1111  plane waves:    2445
 k-point  58 :   0.2222 0.2222 0.2222  plane waves:    2467
 k-point  59 :   0.3333 0.2222 0.2222  plane waves:    2457
 k-point  60 :   0.4444 0.2222 0.2222  plane waves:    2441
[...]
 k-point  71 :  -0.3333 0.4444 0.2222  plane waves:    2433
 k-point  72 :  -0.2222 0.4444 0.2222  plane waves:    2442
 k-point  73 :  -0.4444-0.4444 0.2222  plane waves:    2440
 k-point  74 :  -0.3333-0.4444 0.2222  plane waves:    2432
 k-point  75 :  -0.3333-0.3333 0.2222  plane waves:    2438
 k-point  76 :   0.3333 0.3333 0.3333  plane waves:    2439
 k-point  77 :   0.4444 0.3333 0.3333  plane waves:    2441
 k-point  78 :  -0.4444 0.3333 0.3333  plane waves:    2437
 k-point  79 :  -0.3333 0.3333 0.3333  plane waves:    2434
 k-point  80 :   0.4444 0.4444 0.3333  plane waves:    2444
 k-point  81 :  -0.4444 0.4444 0.3333  plane waves:    2431
 k-point  82 :  -0.3333 0.4444 0.3333  plane waves:    2437
 k-point  83 :  -0.4444-0.4444 0.3333  plane waves:    2442
 k-point  84 :   0.4444 0.4444 0.4444  plane waves:    2433
 k-point  85 :  -0.4444 0.4444 0.4444  plane waves:    2437

 maximum and minimum number of plane-waves per node :      1244     1195

 maximum number of plane-waves:      2470
 maximum index in each direction:
   IXMAX=    9   IYMAX=    9   IZMAX=    8
   IXMIN=   -9   IYMIN=   -9   IZMIN=   -9

 parallel 3D FFT for wavefunctions:
    minimum data exchange during FFTs selected (reduces bandwidth)
 parallel 3D FFT for charge:
    minimum data exchange during FFTs selected (reduces bandwidth)

 Broyden mixing: mesh for mixing (old mesh)
   NGX = 17   NGY = 17   NGZ = 17
  (NGX  = 72   NGY  = 72   NGZ  = 72)
  gives a total of   4913 points

 initial charge density was supplied:
 charge density of overlapping atoms calculated
 number of electron      46.0000000 magnetization
 keeping initial charge density in first step

 Maximum index for augmentation-charges        18017 (set IRDMAX)

 First call to EWALD:  gamma=   0.424
 Maximum number of real-space cells 3x 3x 3
 Maximum number of reciprocal cells 3x 3x 3

--------------------------------------- Iteration      1(   1)  ---------------------------------------

 eigenvalue-minimisations  :  5112
 total energy-change (2. order) : 0.3492381E+03  (-0.3076800E+04)
 number of electron      46.0000000 magnetization
 augmentation part       46.0000000 magnetization

 Free energy of the ion-electron system (eV)
  alpha Z        PSCENC =       251.82420592
  Ewald energy   TEWEN  =     -3380.85626972
  -Hartree energ DENC   =      -939.98656146
  -exchange      EXHF   =         0.00000000
  -V(xc)+E(xc)   XCENC  =       207.04456027
  PAW double counting   =      3222.80406090    -3218.79394424
  entropy T*S    EENTRO =        -0.00034089
  eigenvalues    EBANDS =        55.61970171
  atomic energy  EATOM  =      4151.58264605
  free energy    TOTEN  =       349.23805854 eV

  energy without entropy =      349.23839944  energy(sigma->0) =      349.23822899

[...]

 eigenvalue-minimisations  :  6000
 total energy-change (2. order) :-0.4548263E+03  (-0.4416094E+03)
 number of electron      46.0000000 magnetization
 augmentation part       46.0000000 magnetization

[...]

 eigenvalue-minimisations  :     0
 total energy-change (2. order) : 0.1420722E-07  (-0.9775510E-08)
 number of electron      46.0000001 magnetization
 augmentation part        4.8135808 magnetization

[...]

 eigenvalue-minimisations  :     0
 total energy-change (2. order) :-0.7692506E-08  ( 0.1549646E-06)
 number of electron      46.0000001 magnetization
 augmentation part        4.8135857 magnetization

[...]

--------------------------------------- Iteration      1(  32)  ---------------------------------------

 eigenvalue-minimisations  :     0
 total energy-change (2. order) :-0.2119123E-09  (-0.5219855E-10)
 number of electron      46.0000001 magnetization
 augmentation part        4.8135850 magnetization

 Free energy of the ion-electron system (eV)
  alpha Z        PSCENC =       251.82420592
  Ewald energy   TEWEN  =     -3380.85626972
  -Hartree energ DENC   =      -874.56404054
  -exchange      EXHF   =         0.00000000
  -V(xc)+E(xc)   XCENC  =       211.08298129
  PAW double counting   =      5367.18845761    -5371.83430869
  entropy T*S    EENTRO =        -0.00008720
  eigenvalues    EBANDS =      -453.30232056
  atomic energy  EATOM  =      4151.58264605
  free energy    TOTEN  =       -98.87873584 eV

  energy without entropy =      -98.87864864  energy(sigma->0) =      -98.87869224

  average scaling for gradient   1.1329

 average (electrostatic) potential at core
  the test charge radii are     0.7672  1.0818
  (the norm of the test charge is              1.0000)
       1 -24.4525       2 -24.4525       3 -24.4525       4 -24.4525       5 -24.4525
       6 -24.4525       7 -78.4043       8 -78.4043

 E-fermi :   9.1728     XC(G=0): -13.3716     alpha+bet :-17.6286

 Fermi energy:         9.1728367463

 k-point     1 :       0.0000    0.0000    0.0000
  band No.  band energies     occupation
      1     -54.4867      2.00000
      2     -54.4055      2.00000
      3     -28.1070      2.00000
      4     -27.9920      2.00000
      5     -27.9380      2.00000
      6     -27.9380      2.00000
      7     -27.6485      2.00000
      8     -27.6485      2.00000
      9      -5.1810      2.00000
     10      -0.9432      2.00000
     11      -0.9432      2.00000
     12       0.7310      2.00000
     13       0.7310      2.00000
     14       2.8731      2.00000
     15       2.9185      2.00000
     16       4.8920      2.00000
     17       4.8920      2.00000
     18       5.0643      2.00000
     19       5.0643      2.00000
     20       6.2192      2.00000
     21       7.4644      2.00000
     22       8.4008      2.00000
     23       8.4008      2.00000
     24      10.9890      0.00000
     25      11.8569      0.00000
     26      11.8569      0.00000
     27      12.7518      0.00000
     28      12.7549      0.00000
     29      13.8499      0.00000
     30      15.4632      0.00000

[...]

 k-point    85 :      -0.4444    0.4444    0.4444
  band No.  band energies     occupation
      1     -54.4673      2.00000
      2     -54.4239      2.00000
      3     -28.2214      2.00000
      4     -27.9734      2.00000
      5     -27.9644      2.00000
      6     -27.9086      2.00000
      7     -27.6374      2.00000
      8     -27.6280      2.00000
      9      -2.7794      2.00000
     10      -0.5166      2.00000
     11      -0.2977      2.00000
     12       0.1910      2.00000
     13       0.7095      2.00000
     14       1.3342      2.00000
     15       1.7113      2.00000
     16       2.7438      2.00000
     17       5.2733      2.00000
     18       5.2760      2.00000
     19       5.9197      2.00000
     20       5.9451      2.00000
     21       7.9893      2.00000
     22       8.1804      2.00000
     23       8.8678      2.00000
     24       9.3100      0.00000
     25      10.0372      0.00000
     26      10.3984      0.00000
     27      10.7071      0.00000
     28      10.8200      0.00000
     29      13.0179      0.00000
     30      13.0292      0.00000

 soft charge-density along one line, spin component           1
         0         1         2         3         4         5         6         7         8         9
 total charge-density along one line

------------------------ aborting loop because EDIFF is reached ----------------------------------------

  FREE ENERGIE OF THE ION-ELECTRON SYSTEM (eV)
  free  energy   TOTEN  =       -98.87873584 eV

  energy  without entropy=      -98.87864864  energy(sigma->0) =      -98.87869224

 writing wavefunctions