 vasp.6.2.0 18Jan21 (build Jan 05 2022 15:41:44) complex

 executed on             LinuxIFC date 2025.05.07  21:23:50

 INCAR:
   SYSTEM = routine with relax: pwdword
   ICHARG = 2
   NPAR = 6
   KPAR = 2
   NCORE = 2
   ADDGRID = T
   PREC = Acc
   ENCUT = 600
   METAGGA = R2SCAN
   LASPH = .TRUE.
   LMIXTAU = .FALSE.
   ALGO = A
   EDIFF = 1E-9
   NELM = 100
   NELMIN = 6
   IALGO = 38
   LREAL = F
   NSW = 0
   ISIF = -1
   ISMEAR = 0
   SIGMA = 0.02

 POTCAR:    PAW_PBE B 06Sep2000
|           W    W    AA    RRRRR   N    N  II  N    N   GGGG   !!!           |
|           W    W   A  A   R    R  NN   N  II  NN   N  G    G  !!!           |
|           W    W  A    A  R    R  N N  N  II  N N  N  G       !!!           |
|           W WW W  AAAAAA  RRRRR   N  N N  II  N  N N  G  GGG   !            |
|           WW  WW  A    A  R   R   N   NN  II  N   NN  G    G                |
|           W    W  A    A  R    R  N    N  II  N    N   GGGG   !!!           |
|     For optimal performance we recommend to set                             |
|       NCORE = 2 up to number-of-cores-per-socket                            |
|     This setting can greatly improve the performance of VASP for DFT.       |
|     The default, NCORE=1 might be grossly inefficient on modern             |
|     multi-core architectures or massively parallel machines. Do your        |
|     Unfortunately you need to use the default for GW and RPA                |
|     calculations (for HF NCORE is supported but not extensively tested      |
|     yet).                                                                   |

 POTCAR:    PAW_PBE B 06Sep2000
   VRHFIN =B: s2p1

   TITEL  = PAW_PBE B 06Sep2000
   POMASS =   10.811; ZVAL   =    3.000    mass and valenz
   ENMAX  =  318.614; ENMIN  =  238.960 eV

  PAW_PBE B 06Sep2000                   :

 POSCAR: EA252
  positions in direct lattice

 METAGGA = R2SCA    LMAXTAU =  6    LMIXTAU =  F

 ion  position               nearest neighbor table
   1  0.010  0.654  0.010-   5 1.67   3 1.74   2 1.74   7 1.79  10 1.80  12 1.80
   2  0.010  0.010  0.654-   6 1.67   3 1.74   1 1.74   8 1.79  10 1.80  11 1.80
   3  0.654  0.010  0.010-   4 1.67   1 1.74   2 1.74   9 1.79  12 1.80  11 1.80
   4  0.346  0.990  0.990-   3 1.67   5 1.74   6 1.74  10 1.79   8 1.80   7 1.80
   5  0.990  0.346  0.990-   1 1.67   4 1.74   6 1.74  11 1.79   9 1.80   8 1.80
   6  0.990  0.990  0.346-   2 1.67   4 1.74   5 1.74  12 1.79   9 1.80   7 1.80
   7  0.221  0.632  0.221-  12 1.77  10 1.77   1 1.79   6 1.80   4 1.80   9 2.01   8 2.01
   8  0.221  0.221  0.632-  11 1.77  10 1.77   2 1.79   4 1.80   5 1.80   9 2.01   7 2.01
   9  0.632  0.221  0.221-  12 1.77  11 1.77   3 1.79   6 1.80   5 1.80   7 2.01   8 2.01
  10  0.368  0.779  0.779-   8 1.77   7 1.77   4 1.79   2 1.80   1 1.80  11 2.01  12 2.01
  11  0.779  0.368  0.779-   8 1.77   9 1.77   5 1.79   2 1.80   3 1.80  10 2.01  12 2.01
  12  0.779  0.779  0.368-   7 1.77   9 1.77   6 1.79   3 1.80   1 1.80  10 2.01  11 2.01

  LATTYP: Found a trigonal (rhomboedric) cell.
 ALAT       =     5.0424577699
 COS(alpha) =     0.5281620039

  Lattice vectors:

 A1 = (   4.2804641000,  -0.0017224300,   2.6653321300)
 A2 = (   1.4793197100,   4.0167142200,   2.6653321300)
 A3 = (  -0.0024716200,  -0.0017224400,   5.0424568700)

Analysis of symmetry for initial positions (statically):
 Subroutine PRICEL returns:
 Original cell was already a primitive cell.

 Routine SETGRP: Setting up the symmetry group for a
 trigonal (rhombohedral) supercell.

 Subroutine GETGRP returns: Found 12 space group operations
 (whereof 12 operations were pure point group operations)
 out of a pool of 12 trial point group operations.

The static configuration has the point symmetry D_3d.

Analysis of symmetry for dynamics (positions and initial velocities):
 Subroutine PRICEL returns:
 Original cell was already a primitive cell.

 Routine SETGRP: Setting up the symmetry group for a
 trigonal (rhombohedral) supercell.

 Subroutine GETGRP returns: Found 12 space group operations
 (whereof 12 operations were pure point group operations)
 out of a pool of 12 trial point group operations.

The dynamic configuration has the point symmetry D_3d.

 Subroutine INISYM returns: Found 12 space group operations
 (whereof 12 operations are pure point group operations),
 and found     1 'primitive' translations

                                     Primitive cell

  volume of cell :      86.7492

  direct lattice vectors                    reciprocal lattice vectors
     4.280464100 -0.001722430  2.665332130     0.233531925 -0.086064156  0.000085070
     1.479319710  4.016714220  2.665332130     0.000047198  0.248885897  0.000085039
    -0.002471620 -0.001722440  5.042456870    -0.123464803 -0.086064002  0.198226108

  length of vectors
     5.042456866  5.042457267  5.042457770     0.248885930  0.248885916  0.248885837

  position of ions in fractional coordinates (direct lattice)
     0.009970040  0.654285120  0.009970040
     0.009970040  0.009970040  0.654285120
     0.654285120  0.009970040  0.009970040
     0.345714880  0.990029960  0.990029960
     0.990029960  0.345714880  0.990029960
     0.990029960  0.990029960  0.345714880
     0.220565570  0.631634830  0.220565570
     0.220565570  0.220565570  0.631634830
     0.631634830  0.220565570  0.220565570
     0.368365170  0.779434430  0.779434430
     0.779434430  0.368365170  0.779434430
     0.779434430  0.779434430  0.368365170

  ion indices of the primitive-cell ions
   primitive index   ion index
                 1           1
                 2           2
                 3           3
                 4           4
                 5           5
                 6           6
                 7           7
                 8           8
                 9           9
                10          10
                11          11
                12          12

 KPOINTS: EA

Automatic generation of k-mesh.
 Grid dimensions read from file:
 generate k-points for:    9    9    9

 Generating k-lattice:

  Cartesian coordinates                     Fractional coordinates (reciprocal lattice)
     0.025947992 -0.009562684  0.000009452     0.111111111 -0.000000000  0.000000000
     0.000005244  0.027653989  0.000009449     0.000000000  0.111111111  0.000000000
    -0.013718311 -0.009562667  0.022025123     0.000000000  0.000000000  0.111111111

  Length of vectors
     0.027653992  0.027653991  0.027653982

  Shift w.r.t. Gamma in fractional coordinates (k-lattice)
     0.000000000  0.000000000  0.000000000

 Subroutine IBZKPT returns following result:

 Found     85 irreducible k-points:

 Following reciprocal coordinates:
            Coordinates               Weight
  0.000000  0.000000  0.000000      1.000000
  0.111111 -0.000000  0.000000      6.000000
  0.222222 -0.000000  0.000000      6.000000
  0.333333 -0.000000  0.000000      6.000000
  0.444444 -0.000000  0.000000      6.000000
  0.111111  0.111111  0.000000      6.000000
  0.222222  0.111111 -0.000000     12.000000
  0.333333  0.111111  0.000000     12.000000
  0.444444  0.111111 -0.000000     12.000000
 -0.444444  0.111111 -0.000000     12.000000
 -0.333333  0.111111  0.000000     12.000000
 -0.222222  0.111111 -0.000000     12.000000
 -0.111111  0.111111 -0.000000      6.000000
  0.222222  0.222222  0.000000      6.000000
  0.333333  0.222222 -0.000000     12.000000
  0.444444  0.222222 -0.000000     12.000000
 -0.444444  0.222222 -0.000000     12.000000
 -0.333333  0.222222 -0.000000     12.000000
 -0.222222  0.222222 -0.000000      6.000000
  0.333333  0.333333  0.000000      6.000000
  0.444444  0.333333  0.000000     12.000000
 -0.444444  0.333333 -0.000000     12.000000
 -0.333333  0.333333 -0.000000      6.000000
  0.444444  0.444444  0.000000      6.000000
 -0.444444  0.444444 -0.000000      6.000000
  0.111111  0.111111  0.111111      2.000000
  0.222222  0.111111  0.111111      6.000000
  0.333333  0.111111  0.111111      6.000000
  0.444444  0.111111  0.111111      6.000000
 -0.444444  0.111111  0.111111      6.000000
 -0.333333  0.111111  0.111111      6.000000
 -0.222222  0.111111  0.111111      6.000000
 -0.111111  0.111111  0.111111      6.000000
  0.222222  0.222222  0.111111      6.000000
  0.333333  0.222222  0.111111     12.000000
  0.444444  0.222222  0.111111     12.000000
 -0.444444  0.222222  0.111111     12.000000
 -0.333333  0.222222  0.111111     12.000000
 -0.222222  0.222222  0.111111     12.000000
 -0.111111  0.222222  0.111111     12.000000
  0.333333  0.333333  0.111111      6.000000
  0.444444  0.333333  0.111111     12.000000
 -0.444444  0.333333  0.111111     12.000000
 -0.333333  0.333333  0.111111     12.000000
 -0.222222  0.333333  0.111111     12.000000
 -0.111111  0.333333  0.111111     12.000000
  0.444444  0.444444  0.111111      6.000000
 -0.444444  0.444444  0.111111     12.000000
 -0.333333  0.444444  0.111111     12.000000
 -0.222222  0.444444  0.111111     12.000000
 -0.111111  0.444444  0.111111     12.000000
 -0.444444 -0.444444  0.111111      6.000000
 -0.333333 -0.444444  0.111111     12.000000
 -0.222222 -0.444444  0.111111     12.000000
 -0.333333 -0.333333  0.111111      6.000000
 -0.222222 -0.333333  0.111111     12.000000
 -0.222222 -0.222222  0.111111      6.000000
  0.222222  0.222222  0.222222      2.000000
  0.333333  0.222222  0.222222      6.000000
  0.444444  0.222222  0.222222      6.000000
[...]
 -0.333333  0.444444  0.222222     12.000000
 -0.222222  0.444444  0.222222     12.000000
 -0.444444 -0.444444  0.222222      6.000000
 -0.333333 -0.444444  0.222222     12.000000
 -0.333333 -0.333333  0.222222      6.000000
  0.333333  0.333333  0.333333      2.000000
  0.444444  0.333333  0.333333      6.000000
 -0.444444  0.333333  0.333333      6.000000
 -0.333333  0.333333  0.333333      6.000000
  0.444444  0.444444  0.333333      6.000000
 -0.444444  0.444444  0.333333     12.000000
 -0.333333  0.444444  0.333333     12.000000
 -0.444444 -0.444444  0.333333      6.000000
  0.444444  0.444444  0.444444      2.000000
 -0.444444  0.444444  0.444444      6.000000

 Following cartesian coordinates:
            Coordinates               Weight
  0.000000  0.000000  0.000000      1.000000
  0.025948 -0.009563  0.000009      6.000000
  0.051896 -0.019125  0.000019      6.000000
  0.077844 -0.028688  0.000028      6.000000
  0.103792 -0.038251  0.000038      6.000000
  0.025953  0.018091  0.000019      6.000000
  0.051901  0.008529  0.000028     12.000000
  0.077849 -0.001034  0.000038     12.000000
  0.103797 -0.010597  0.000047     12.000000
 -0.103787  0.065905 -0.000028     12.000000
 -0.077839  0.056342 -0.000019     12.000000
 -0.051891  0.046779 -0.000009     12.000000
 -0.025943  0.037217 -0.000000      6.000000
  0.051906  0.036183  0.000038      6.000000
  0.077854  0.026620  0.000047     12.000000
  0.103802  0.017057  0.000057     12.000000
 -0.103781  0.093559 -0.000019     12.000000
 -0.077833  0.083996 -0.000009     12.000000
 -0.051885  0.074433 -0.000000      6.000000
  0.077860  0.054274  0.000057      6.000000
  0.103808  0.044711  0.000066     12.000000
 -0.103776  0.121213 -0.000009     12.000000
[...]
  -0.06563003 -0.07339926  0.02197787       0.016
  -0.06562478 -0.04574528  0.02198732       0.008
   0.02446985  0.01705728  0.04408805       0.003
   0.05041784  0.00749459  0.04409750       0.008
   0.07636583 -0.00206809  0.04410695       0.008
[...]
  -0.10525962  0.12017867  0.04405968       0.016
  -0.07931163  0.11061599  0.04406914       0.016
  -0.13124957 -0.09149055  0.04397464       0.008
  -0.10530157 -0.10105324  0.04398409       0.016
  -0.10529633 -0.07339925  0.04399354       0.008
   0.03670477  0.02558591  0.06613207       0.003
   0.06265277  0.01602323  0.06614152       0.008
  -0.14493117  0.09252470  0.06606591       0.008
  -0.11898318  0.08296202  0.06607536       0.008
   0.06265801  0.04367722  0.06615097       0.008
  -0.14492592  0.12017869  0.06607536       0.016
  -0.11897793  0.11061601  0.06608481       0.016
  -0.14496788 -0.10105322  0.06599977       0.008
   0.04893970  0.03411455  0.08817610       0.003
  -0.15864424  0.11061602  0.08810048       0.008

 k-points in reciprocal lattice and weights: EA
   0.00000000  0.00000000  0.00000000       0.001
   0.11111111 -0.00000000  0.00000000       0.008
   0.22222222 -0.00000000  0.00000000       0.008
   0.33333333 -0.00000000  0.00000000       0.008
   0.44444444 -0.00000000  0.00000000       0.008
   0.11111111  0.11111111  0.00000000       0.008
   0.22222222  0.11111111 -0.00000000       0.016
   0.33333333  0.11111111  0.00000000       0.016
   0.44444444  0.11111111 -0.00000000       0.016
  -0.44444444  0.11111111 -0.00000000       0.016
  -0.33333333  0.11111111  0.00000000       0.016
  -0.22222222  0.11111111 -0.00000000       0.016
  -0.11111111  0.11111111 -0.00000000       0.008
   0.22222222  0.22222222  0.00000000       0.008
   0.33333333  0.22222222 -0.00000000       0.016
   0.44444444  0.22222222 -0.00000000       0.016
  -0.44444444  0.22222222 -0.00000000       0.016
  -0.33333333  0.22222222 -0.00000000       0.016
  -0.22222222  0.22222222 -0.00000000       0.008
   0.33333333  0.33333333  0.00000000       0.008
   0.44444444  0.33333333  0.00000000       0.016
  -0.44444444  0.33333333 -0.00000000       0.016
  -0.33333333  0.33333333 -0.00000000       0.008
   0.44444444  0.44444444  0.00000000       0.008
  -0.44444444  0.44444444 -0.00000000       0.008
   0.11111111  0.11111111  0.11111111       0.003
   0.22222222  0.11111111  0.11111111       0.008
   0.33333333  0.11111111  0.11111111       0.008
   0.44444444  0.11111111  0.11111111       0.008
  -0.44444444  0.11111111  0.11111111       0.008
  -0.33333333  0.11111111  0.11111111       0.008
  -0.22222222  0.11111111  0.11111111       0.008
  -0.11111111  0.11111111  0.11111111       0.008
   0.22222222  0.22222222  0.11111111       0.008
   0.33333333  0.22222222  0.11111111       0.016
   0.44444444  0.22222222  0.11111111       0.016
  -0.44444444  0.22222222  0.11111111       0.016
  -0.33333333  0.22222222  0.11111111       0.016
  -0.22222222  0.22222222  0.11111111       0.016
  -0.11111111  0.22222222  0.11111111       0.016
   0.33333333  0.33333333  0.11111111       0.008
   0.44444444  0.33333333  0.11111111       0.016
  -0.44444444  0.33333333  0.11111111       0.016
  -0.33333333  0.33333333  0.11111111       0.016
  -0.22222222  0.33333333  0.11111111       0.016
  -0.11111111  0.33333333  0.11111111       0.016
   0.44444444  0.44444444  0.11111111       0.008
  -0.44444444  0.44444444  0.11111111       0.016
  -0.33333333  0.44444444  0.11111111       0.016
  -0.22222222  0.44444444  0.11111111       0.016
  -0.11111111  0.44444444  0.11111111       0.016
  -0.44444444 -0.44444444  0.11111111       0.008
  -0.33333333 -0.44444444  0.11111111       0.016
  -0.22222222 -0.44444444  0.11111111       0.016
  -0.33333333 -0.33333333  0.11111111       0.008
  -0.22222222 -0.33333333  0.11111111       0.016
  -0.22222222 -0.22222222  0.11111111       0.008
   0.22222222  0.22222222  0.22222222       0.003
   0.33333333  0.22222222  0.22222222       0.008
   0.44444444  0.22222222  0.22222222       0.008
[...]
  -0.33333333  0.44444444  0.22222222       0.016
  -0.22222222  0.44444444  0.22222222       0.016
  -0.44444444 -0.44444444  0.22222222       0.008
  -0.33333333 -0.44444444  0.22222222       0.016
  -0.33333333 -0.33333333  0.22222222       0.008
   0.33333333  0.33333333  0.33333333       0.003
   0.44444444  0.33333333  0.33333333       0.008
  -0.44444444  0.33333333  0.33333333       0.008
  -0.33333333  0.33333333  0.33333333       0.008
   0.44444444  0.44444444  0.33333333       0.008
  -0.44444444  0.44444444  0.33333333       0.016
  -0.33333333  0.44444444  0.33333333       0.016
  -0.44444444 -0.44444444  0.33333333       0.008
   0.44444444  0.44444444  0.44444444       0.003
  -0.44444444  0.44444444  0.44444444       0.008

 position of ions in fractional coordinates (direct lattice)
   0.00997004  0.65428512  0.00997004
   0.00997004  0.00997004  0.65428512
   0.65428512  0.00997004  0.00997004
   0.34571488  0.99002996  0.99002996
   0.99002996  0.34571488  0.99002996
   0.99002996  0.99002996  0.34571488
   0.22056557  0.63163483  0.22056557
   0.22056557  0.22056557  0.63163483
   0.63163483  0.22056557  0.22056557
   0.36836517  0.77943443  0.77943443
   0.77943443  0.36836517  0.77943443
   0.77943443  0.77943443  0.36836517

 position of ions in cartesian coordinates  (Angst):
   1.01054863  2.62804200  1.82073412
   0.05580813  0.03890266  3.35235143
   2.81536820  0.03890267  1.82073412
   2.94194399  3.97436668  8.55238701
   4.74676356  1.38522735  8.55238701
   5.70150406  3.97436669  7.02076970
   1.87796770  2.53633678  3.38358948
   1.26884884  0.88448100  4.36075239
   3.02943205  0.88448100  3.38358948
   2.72788014  3.12878835  6.98953165
   3.87934449  1.47693257  6.98953165
   4.48846335  3.12878835  6.01236874

 k-point   1 :   0.0000 0.0000 0.0000  plane waves:    2867
 k-point   2 :   0.1111-0.0000 0.0000  plane waves:    2872
 k-point   3 :   0.2222-0.0000 0.0000  plane waves:    2890
 k-point   4 :   0.3333-0.0000 0.0000  plane waves:    2891
 k-point   5 :   0.4444-0.0000 0.0000  plane waves:    2889
 k-point   6 :   0.1111 0.1111 0.0000  plane waves:    2873
 k-point   7 :   0.2222 0.1111-0.0000  plane waves:    2886
 k-point   8 :   0.3333 0.1111 0.0000  plane waves:    2894
 k-point   9 :   0.4444 0.1111-0.0000  plane waves:    2897
 k-point  10 :  -0.4444 0.1111-0.0000  plane waves:    2894
 k-point  11 :  -0.3333 0.1111 0.0000  plane waves:    2891
 k-point  12 :  -0.2222 0.1111-0.0000  plane waves:    2898
 k-point  13 :  -0.1111 0.1111-0.0000  plane waves:    2880
 k-point  14 :   0.2222 0.2222 0.0000  plane waves:    2895
 k-point  15 :   0.3333 0.2222-0.0000  plane waves:    2899
 k-point  16 :   0.4444 0.2222-0.0000  plane waves:    2888
 k-point  17 :  -0.4444 0.2222-0.0000  plane waves:    2887
 k-point  18 :  -0.3333 0.2222-0.0000  plane waves:    2892
 k-point  19 :  -0.2222 0.2222-0.0000  plane waves:    2892
 k-point  20 :   0.3333 0.3333 0.0000  plane waves:    2899
 k-point  21 :   0.4444 0.3333 0.0000  plane waves:    2892
 k-point  22 :  -0.4444 0.3333-0.0000  plane waves:    2897
 k-point  23 :  -0.3333 0.3333-0.0000  plane waves:    2890
 k-point  24 :   0.4444 0.4444 0.0000  plane waves:    2895
 k-point  25 :  -0.4444 0.4444-0.0000  plane waves:    2888
 k-point  26 :   0.1111 0.1111 0.1111  plane waves:    2864
 k-point  27 :   0.2222 0.1111 0.1111  plane waves:    2884
 k-point  28 :   0.3333 0.1111 0.1111  plane waves:    2886
 k-point  29 :   0.4444 0.1111 0.1111  plane waves:    2893
 k-point  30 :  -0.4444 0.1111 0.1111  plane waves:    2901
 k-point  31 :  -0.3333 0.1111 0.1111  plane waves:    2895
 k-point  32 :  -0.2222 0.1111 0.1111  plane waves:    2899
 k-point  33 :  -0.1111 0.1111 0.1111  plane waves:    2891
 k-point  34 :   0.2222 0.2222 0.1111  plane waves:    2883
 k-point  35 :   0.3333 0.2222 0.1111  plane waves:    2891
 k-point  36 :   0.4444 0.2222 0.1111  plane waves:    2892
 k-point  37 :  -0.4444 0.2222 0.1111  plane waves:    2903
 k-point  38 :  -0.3333 0.2222 0.1111  plane waves:    2901
 k-point  39 :  -0.2222 0.2222 0.1111  plane waves:    2890
 k-point  40 :  -0.1111 0.2222 0.1111  plane waves:    2898
 k-point  41 :   0.3333 0.3333 0.1111  plane waves:    2895
 k-point  42 :   0.4444 0.3333 0.1111  plane waves:    2891
 k-point  43 :  -0.4444 0.3333 0.1111  plane waves:    2891
 k-point  44 :  -0.3333 0.3333 0.1111  plane waves:    2896
 k-point  45 :  -0.2222 0.3333 0.1111  plane waves:    2902
 k-point  46 :  -0.1111 0.3333 0.1111  plane waves:    2890
 k-point  47 :   0.4444 0.4444 0.1111  plane waves:    2893
 k-point  48 :  -0.4444 0.4444 0.1111  plane waves:    2899
 k-point  49 :  -0.3333 0.4444 0.1111  plane waves:    2896
 k-point  50 :  -0.2222 0.4444 0.1111  plane waves:    2888
 k-point  51 :  -0.1111 0.4444 0.1111  plane waves:    2892
 k-point  52 :  -0.4444-0.4444 0.1111  plane waves:    2900
 k-point  53 :  -0.3333-0.4444 0.1111  plane waves:    2897
 k-point  54 :  -0.2222-0.4444 0.1111  plane waves:    2894
 k-point  55 :  -0.3333-0.3333 0.1111  plane waves:    2893
 k-point  56 :  -0.2222-0.3333 0.1111  plane waves:    2894
 k-point  57 :  -0.2222-0.2222 0.1111  plane waves:    2895
 k-point  58 :   0.2222 0.2222 0.2222  plane waves:    2894
 k-point  59 :   0.3333 0.2222 0.2222  plane waves:    2888
 k-point  60 :   0.4444 0.2222 0.2222  plane waves:    2906
[...]
 k-point  71 :  -0.3333 0.4444 0.2222  plane waves:    2889
 k-point  72 :  -0.2222 0.4444 0.2222  plane waves:    2895
 k-point  73 :  -0.4444-0.4444 0.2222  plane waves:    2904
 k-point  74 :  -0.3333-0.4444 0.2222  plane waves:    2893
 k-point  75 :  -0.3333-0.3333 0.2222  plane waves:    2910
 k-point  76 :   0.3333 0.3333 0.3333  plane waves:    2900
 k-point  77 :   0.4444 0.3333 0.3333  plane waves:    2897
 k-point  78 :  -0.4444 0.3333 0.3333  plane waves:    2899
 k-point  79 :  -0.3333 0.3333 0.3333  plane waves:    2902
 k-point  80 :   0.4444 0.4444 0.3333  plane waves:    2913
 k-point  81 :  -0.4444 0.4444 0.3333  plane waves:    2905
 k-point  82 :  -0.3333 0.4444 0.3333  plane waves:    2898
 k-point  83 :  -0.4444-0.4444 0.3333  plane waves:    2896
 k-point  84 :   0.4444 0.4444 0.4444  plane waves:    2932
 k-point  85 :  -0.4444 0.4444 0.4444  plane waves:    2924

 maximum and minimum number of plane-waves per node :      1468     1423

 maximum number of plane-waves:      2932
 maximum index in each direction:
   IXMAX=   10   IYMAX=   10   IZMAX=   10
   IXMIN=  -10   IYMIN=  -10   IZMIN=  -10

 parallel 3D FFT for wavefunctions:
    minimum data exchange during FFTs selected (reduces bandwidth)
 parallel 3D FFT for charge:
    minimum data exchange during FFTs selected (reduces bandwidth)

 Broyden mixing: mesh for mixing (old mesh)
   NGX = 21   NGY = 21   NGZ = 21
  (NGX  = 80   NGY  = 80   NGZ  = 80)
  gives a total of   9261 points

 initial charge density was supplied:
 charge density of overlapping atoms calculated
 number of electron      36.0000000 magnetization
 keeping initial charge density in first step

 Maximum index for augmentation-charges         9021 (set IRDMAX)

 First call to EWALD:  gamma=   0.400
 Maximum number of real-space cells 3x 3x 3
 Maximum number of reciprocal cells 3x 3x 3

--------------------------------------- Iteration      1(   1)  ---------------------------------------

 eigenvalue-minimisations  :  5100
 total energy-change (2. order) : 0.7333885E+02  (-0.2168079E+04)
 number of electron      36.0000000 magnetization
 augmentation part       36.0000000 magnetization

 Free energy of the ion-electron system (eV)
  alpha Z        PSCENC =       114.19699731
  Ewald energy   TEWEN  =     -1014.00203843
  -Hartree energ DENC   =       -78.07728657
  -exchange      EXHF   =         0.00000000
  -V(xc)+E(xc)   XCENC  =       107.24265819
  PAW double counting   =       500.96964506     -506.20447866
  entropy T*S    EENTRO =        -0.00047288
  eigenvalues    EBANDS =        95.17861253
  atomic energy  EATOM  =       854.03520903
  free energy    TOTEN  =        73.33884558 eV

  energy without entropy =       73.33931846  energy(sigma->0) =       73.33908202

[...]

 eigenvalue-minimisations  :  6612
 total energy-change (2. order) :-0.1659233E+03  (-0.1603058E+03)
 number of electron      36.0000000 magnetization
 augmentation part       36.0000000 magnetization

[...]

 eigenvalue-minimisations  :     0
 total energy-change (2. order) :-0.2469278E-09  (-0.1446551E-08)
 number of electron      36.0000000 magnetization
 augmentation part       -0.1332531 magnetization

[...]

--------------------------------------- Iteration      1(  20)  ---------------------------------------

 eigenvalue-minimisations  :     0
 total energy-change (2. order) : 0.2719389E-09  (-0.9951511E-09)
 number of electron      36.0000000 magnetization
 augmentation part       -0.1332527 magnetization

 Free energy of the ion-electron system (eV)
  alpha Z        PSCENC =       114.19699731
  Ewald energy   TEWEN  =     -1014.00203843
  -Hartree energ DENC   =      -112.46237733
  -exchange      EXHF   =         0.00000000
  -V(xc)+E(xc)   XCENC  =       111.60144972
  PAW double counting   =      3676.09018737    -3682.43379836
  entropy T*S    EENTRO =        -0.00000000
  eigenvalues    EBANDS =       -35.16818397
  atomic energy  EATOM  =       854.03520903
  free energy    TOTEN  =       -88.14255465 eV

  energy without entropy =      -88.14255465  energy(sigma->0) =      -88.14255465

  average scaling for gradient   1.8611

 average (electrostatic) potential at core
  the test charge radii are     0.7672
  (the norm of the test charge is              1.0000)
       1 -26.7394       2 -26.7394       3 -26.7394       4 -26.7394       5 -26.7394
       6 -26.7394       7 -28.2634       8 -28.2634       9 -28.2634      10 -28.2634
      11 -28.2634      12 -28.2634

 E-fermi :   6.0318     XC(G=0): -12.3031     alpha+bet :-15.3532

 Fermi energy:         6.0318170498

 k-point     1 :       0.0000    0.0000    0.0000
  band No.  band energies     occupation
      1     -11.2618      2.00000
      2      -5.2303      2.00000
      3      -4.9655      2.00000
      4      -4.9655      2.00000
      5      -3.6835      2.00000
      6      -3.0650      2.00000
      7      -3.0650      2.00000
      8      -2.7616      2.00000
      9      -0.9690      2.00000
     10      -0.9690      2.00000
     11      -0.8911      2.00000
     12       0.1231      2.00000
     13       1.2732      2.00000
     14       1.2732      2.00000
     15       4.5141      2.00000
     16       4.9797      2.00000
     17       4.9797      2.00000
     18       5.5283      2.00000
     19       7.5747      0.00000
     20      10.8111      0.00000
     21      10.8111      0.00000
     22      11.0166      0.00000
     23      11.0166      0.00000
     24      12.6472      0.00000
     25      14.1468      0.00000
     26      14.1468      0.00000
     27      15.5841      0.00000
     28      16.3090      0.00000
     29      16.4227      0.00000
     30      16.8989      0.00000

[...]

 k-point    85 :      -0.4444    0.4444    0.4444
  band No.  band energies     occupation
      1     -10.6012      2.00000
      2      -7.5280      2.00000
      3      -5.8648      2.00000
      4      -5.3139      2.00000
      5      -3.9047      2.00000
      6      -3.1866      2.00000
      7      -3.0093      2.00000
      8      -0.5503      2.00000
      9      -0.4321      2.00000
     10      -0.3360      2.00000
     11       0.5698      2.00000
     12       1.7911      2.00000
     13       2.4490      2.00000
     14       2.5396      2.00000
     15       2.9791      2.00000
     16       3.7749      2.00000
     17       4.0225      2.00000
     18       5.4258      2.00000
     19       8.7661      0.00000
     20       8.9695      0.00000
     21       9.1974      0.00000
     22      10.7450      0.00000
     23      10.8595      0.00000
     24      11.9404      0.00000
     25      12.3397      0.00000
     26      13.1775      0.00000
     27      13.5893      0.00000
     28      13.8468      0.00000
     29      15.2291      0.00000
     30      16.3246      0.00000

 soft charge-density along one line, spin component           1
         0         1         2         3         4         5         6         7         8         9
 total charge-density along one line

------------------------ aborting loop because EDIFF is reached ----------------------------------------

  FREE ENERGIE OF THE ION-ELECTRON SYSTEM (eV)
  free  energy   TOTEN  =       -88.14255465 eV

  energy  without entropy=      -88.14255465  energy(sigma->0) =      -88.14255465

 writing wavefunctions