 vasp.6.2.0 18Jan21 (build Jan 05 2022 15:41:44) complex

 executed on             LinuxIFC date 2025.05.07  20:08:43

 INCAR:
   SYSTEM = routine with relax: pwdword
   ICHARG = 2
   NPAR = 6
   KPAR = 2
   NCORE = 2
   ADDGRID = T
   PREC = Acc
   ENCUT = 600
   METAGGA = R2SCAN
   LASPH = .TRUE.
   LMIXTAU = .FALSE.
   ALGO = A
   EDIFF = 1E-9
   NELM = 100
   NELMIN = 6
   IALGO = 38
   LREAL = F
   NSW = 0
   ISIF = -1
   ISMEAR = 0
   SIGMA = 0.02

 POTCAR:    PAW_PBE B 06Sep2000
 POTCAR:    PAW_PBE Mo_sv 02Feb2006
 POTCAR:    PAW_PBE Si 05Jan2001
|           W    W    AA    RRRRR   N    N  II  N    N   GGGG   !!!           |
|           W    W   A  A   R    R  NN   N  II  NN   N  G    G  !!!           |
|           W    W  A    A  R    R  N N  N  II  N N  N  G       !!!           |
|           W WW W  AAAAAA  RRRRR   N  N N  II  N  N N  G  GGG   !            |
|           WW  WW  A    A  R   R   N   NN  II  N   NN  G    G                |
|           W    W  A    A  R    R  N    N  II  N    N   GGGG   !!!           |
|     For optimal performance we recommend to set                             |
|       NCORE = 2 up to number-of-cores-per-socket                            |
|     This setting can greatly improve the performance of VASP for DFT.       |
|     The default, NCORE=1 might be grossly inefficient on modern             |
|     multi-core architectures or massively parallel machines. Do your        |
|     Unfortunately you need to use the default for GW and RPA                |
|     calculations (for HF NCORE is supported but not extensively tested      |
|     yet).                                                                   |

 POTCAR:    PAW_PBE B 06Sep2000
   VRHFIN =B: s2p1

   TITEL  = PAW_PBE B 06Sep2000
   POMASS =   10.811; ZVAL   =    3.000    mass and valenz
   ENMAX  =  318.614; ENMIN  =  238.960 eV

 POTCAR:    PAW_PBE Mo_sv 02Feb2006
   VRHFIN =Mo: 4p5s4d

   TITEL  = PAW_PBE Mo_sv 02Feb2006
   POMASS =   95.940; ZVAL   =   14.000    mass and valenz
   ENMAX  =  242.676; ENMIN  =  182.007 eV

 POTCAR:    PAW_PBE Si 05Jan2001
   VRHFIN =Si: s2p2

   TITEL  = PAW_PBE Si 05Jan2001
   POMASS =   28.085; ZVAL   =    4.000    mass and valenz
   ENMAX  =  245.345; ENMIN  =  184.009 eV

  PAW_PBE B 06Sep2000                   :
  PAW_PBE Mo_sv 02Feb2006               :
  PAW_PBE Si 05Jan2001                  :

 POSCAR: EA210
  positions in direct lattice

 METAGGA = R2SCA    LMAXTAU =  6    LMIXTAU =  F

 ion  position               nearest neighbor table
   1  0.750  0.250  0.500-   3 1.98   6 1.98
   2  0.250  0.750  0.500-   3 1.98   6 1.98
   3  0.500  0.000  0.500-   1 1.98   2 1.98   7 2.08   8 2.08   9 2.08  10 2.08  15 2.80  16 2.80
                            13 2.96  14 2.96
   4  0.745  0.525  0.270-  14 1.78   6 2.08  16 2.29  11 2.64   7 2.84   8 2.84  12 3.21
   5  0.255  0.475  0.730-  13 1.78   6 2.08  15 2.29  12 2.64   8 2.84   7 2.84  11 3.21
   6  0.000  0.500  0.500-   1 1.98   2 1.98   4 2.08   5 2.08  11 2.08  12 2.08  13 2.80  14 2.80
                            15 2.96  16 2.96
   7  0.525  0.255  0.779-  16 1.78   3 2.08  13 2.29   9 2.64   4 2.84   5 2.84  10 3.21
   8  0.475  0.745  0.221-  15 1.78   3 2.08  14 2.29  10 2.64   5 2.84   4 2.84   9 3.21
   9  0.755  0.025  0.779-  16 1.78   3 2.08  14 2.29   7 2.64  12 2.84  11 2.84   8 3.21
  10  0.245  0.975  0.221-  15 1.78   3 2.08  13 2.29   8 2.64  11 2.84  12 2.84   7 3.21
  11  0.975  0.755  0.730-  14 1.78   6 2.08  15 2.29   4 2.64  10 2.84   9 2.84   5 3.21
  12  0.025  0.245  0.270-  13 1.78   6 2.08  16 2.29   5 2.64   9 2.84  10 2.84   4 3.21
  13  0.243  0.257  0.500-   5 1.78  12 1.78  10 2.29   7 2.29   6 2.80   3 2.96
  14  0.757  0.743  0.500-   4 1.78  11 1.78   9 2.29   8 2.29   6 2.80   3 2.96
  15  0.257  0.757  0.014-   8 1.78  10 1.78   5 2.29  11 2.29   3 2.80   6 2.96
  16  0.743  0.243  0.986-   7 1.78   9 1.78   4 2.29  12 2.29   3 2.80   6 2.96

  LATTYP: Found a body centered tetragonal cell.
 ALAT       =     8.1377273782
 C/A-ratio  =     0.9755646700

  Lattice vectors:

 A1 = (   6.6172056942,   0.0000000000,  -2.2539694104)
 A2 = (  -3.3904439397,   5.6826315287,  -2.2539694104)
 A3 = (   0.0000000000,   0.0000000000,   6.9905500000)

Analysis of symmetry for initial positions (statically):
 Subroutine PRICEL returns:
 Original cell was already a primitive cell.

 Routine SETGRP: Setting up the symmetry group for a
 body centered tetragonal supercell.

 Subroutine GETGRP returns: Found  4 space group operations
 (whereof  2 operations were pure point group operations)
 out of a pool of 16 trial point group operations.

The static configuration has the point symmetry S_2 .
 The point group associated with its full space group is C_2h.

Analysis of symmetry for dynamics (positions and initial velocities):
 Subroutine PRICEL returns:
 Original cell was already a primitive cell.

 Routine SETGRP: Setting up the symmetry group for a
 body centered tetragonal supercell.

 Subroutine GETGRP returns: Found  4 space group operations
 (whereof  2 operations were pure point group operations)
 out of a pool of 16 trial point group operations.

The dynamic configuration has the point symmetry S_2 .
 The point group associated with its full space group is C_2h.

 Subroutine INISYM returns: Found  4 space group operations
 (whereof  2 operations are pure point group operations),
 and found     1 'primitive' translations

                                     Primitive cell

  volume of cell :     262.8666

  direct lattice vectors                    reciprocal lattice vectors
     6.617205694  0.000000000 -2.253969410     0.151121190  0.090163848  0.000000000
    -3.390443940  5.682631529 -2.253969410     0.000000000  0.175974809  0.000000000
     0.000000000  0.000000000  6.990550000     0.048726143  0.085811330  0.143050261

  length of vectors
     6.990550000  6.990550000  6.990550000     0.175974809  0.175974809  0.173784920

  position of ions in fractional coordinates (direct lattice)
     0.750000000  0.250000000  0.500000000
     0.250000000  0.750000000  0.500000000
     0.500000000  0.000000000  0.500000000
     0.745480000  0.524820000  0.270290000
     0.254520000  0.475180000  0.729710000
     0.000000000  0.500000000  0.500000000
     0.524820000  0.254520000  0.779340000
     0.475180000  0.745480000  0.220660000
     0.754520000  0.024820000  0.779340000
     0.245480000  0.975180000  0.220660000
     0.975180000  0.754520000  0.729710000
     0.024820000  0.245480000  0.270290000
     0.242910000  0.257090000  0.500000000
     0.757090000  0.742910000  0.500000000
     0.257090000  0.757090000  0.014190000
     0.742910000  0.242910000  0.985810000

  ion indices of the primitive-cell ions
   primitive index   ion index
                 1           1
                 2           2
                 3           3
                 4           4
                 5           5
                 6           6
                 7           7
                 8           8
                 9           9
                10          10
                11          11
                12          12
                13          13
                14          14
                15          15
                16          16

 KPOINTS: EA

Automatic generation of k-mesh.
 Grid dimensions read from file:
 generate k-points for:    6    6    6

 Generating k-lattice:

  Cartesian coordinates                     Fractional coordinates (reciprocal lattice)
     0.025186865  0.015027308  0.000000000     0.166666667  0.000000000  0.000000000
     0.000000000  0.029329135  0.000000000     0.000000000  0.166666667  0.000000000
     0.008121024  0.014301888  0.023841710    -0.000000000 -0.000000000  0.166666667

  Length of vectors
     0.029329135  0.029329135  0.028964153

  Shift w.r.t. Gamma in fractional coordinates (k-lattice)
     0.000000000  0.000000000  0.000000000

 Subroutine IBZKPT returns following result:

 Found     68 irreducible k-points:

 Following reciprocal coordinates:
            Coordinates               Weight
  0.000000  0.000000  0.000000      1.000000
  0.166667 -0.000000  0.000000      4.000000
  0.166667 -0.000000 -0.166667      4.000000
  0.333333 -0.000000  0.000000      4.000000
  0.333333  0.000000 -0.333333      4.000000
  0.500000 -0.000000  0.000000      2.000000
  0.500000 -0.000000  0.500000      2.000000
  0.166667  0.166667  0.000000      2.000000
  0.333333 -0.000000 -0.166667      4.000000
  0.166667  0.166667 -0.333333      2.000000
  0.333333  0.166667  0.000000      4.000000
  0.500000 -0.000000 -0.333333      4.000000
  0.166667  0.333333  0.500000      4.000000
  0.000000  0.500000 -0.166667      4.000000
  0.500000  0.166667  0.000000      4.000000
 -0.333333 -0.000000  0.500000      4.000000
  0.166667  0.500000  0.333333      4.000000
  0.000000 -0.333333 -0.166667      4.000000
 -0.333333  0.166667  0.000000      4.000000
 -0.166667 -0.000000  0.333333      4.000000
  0.166667 -0.333333  0.166667      4.000000
  0.000000 -0.166667 -0.166667      4.000000
 -0.166667  0.166667  0.000000      2.000000
 -0.000000 -0.000000  0.166667      2.000000
  0.333333  0.333333  0.000000      2.000000
 -0.333333  0.000000 -0.333333      4.000000
  0.333333  0.333333  0.333333      2.000000
  0.500000  0.333333  0.000000      4.000000
 -0.166667 -0.000000  0.500000      4.000000
  0.333333  0.500000  0.166667      4.000000
  0.000000 -0.166667 -0.333333      4.000000
 -0.333333  0.333333  0.000000      2.000000
 -0.000000 -0.000000  0.333333      2.000000
  0.500000  0.500000  0.000000      1.000000
  0.000000 -0.000000  0.500000      1.000000
  0.166667  0.166667  0.166667      2.000000
  0.500000 -0.166667 -0.166667      4.000000
  0.166667  0.166667  0.500000      2.000000
  0.333333  0.166667  0.166667      4.000000
 -0.333333 -0.166667 -0.333333      4.000000
 -0.166667  0.166667  0.166667      4.000000
  0.333333  0.333333  0.166667      2.000000
 -0.166667 -0.166667 -0.333333      2.000000
 -0.333333  0.333333  0.166667      4.000000
  0.166667 -0.166667  0.333333      4.000000
 -0.166667  0.333333  0.166667      4.000000
  0.333333 -0.166667 -0.333333      4.000000
  0.500000  0.500000  0.166667      2.000000
  0.166667 -0.166667  0.500000      2.000000
 -0.333333  0.500000  0.166667      4.000000
  0.333333 -0.166667  0.333333      4.000000
  0.500000 -0.333333 -0.333333      4.000000
 -0.166667  0.333333  0.500000      4.000000
 -0.166667  0.500000  0.166667      4.000000
  0.500000 -0.166667  0.500000      4.000000
 -0.333333 -0.333333  0.166667      2.000000
  0.500000 -0.166667  0.333333      4.000000
 -0.333333 -0.333333  0.500000      2.000000
 -0.166667 -0.333333  0.166667      4.000000
 -0.333333 -0.166667  0.333333      4.000000
 -0.166667 -0.166667  0.166667      2.000000
 -0.333333  0.333333  0.333333      4.000000
  0.500000  0.500000  0.333333      2.000000
  0.333333 -0.333333  0.500000      2.000000
 -0.333333  0.500000  0.333333      4.000000
  0.500000 -0.333333  0.500000      4.000000
 -0.333333 -0.333333  0.333333      2.000000
  0.500000  0.500000  0.500000      1.000000

[...]
   0.50000000  0.50000000  0.00000000       0.005
   0.00000000 -0.00000000  0.50000000       0.005
   0.16666667  0.16666667  0.16666667       0.009
   0.50000000 -0.16666667 -0.16666667       0.019
   0.16666667  0.16666667  0.50000000       0.009
   0.33333333  0.16666667  0.16666667       0.019
  -0.33333333 -0.16666667 -0.33333333       0.019
  -0.16666667  0.16666667  0.16666667       0.019
   0.33333333  0.33333333  0.16666667       0.009
  -0.16666667 -0.16666667 -0.33333333       0.009
  -0.33333333  0.33333333  0.16666667       0.019
   0.16666667 -0.16666667  0.33333333       0.019
  -0.16666667  0.33333333  0.16666667       0.019
   0.33333333 -0.16666667 -0.33333333       0.019
   0.50000000  0.50000000  0.16666667       0.009
   0.16666667 -0.16666667  0.50000000       0.009
  -0.33333333  0.50000000  0.16666667       0.019
   0.33333333 -0.16666667  0.33333333       0.019
   0.50000000 -0.33333333 -0.33333333       0.019
  -0.16666667  0.33333333  0.50000000       0.019
  -0.16666667  0.50000000  0.16666667       0.019
   0.50000000 -0.16666667  0.50000000       0.019
  -0.33333333 -0.33333333  0.16666667       0.009
   0.50000000 -0.16666667  0.33333333       0.019
  -0.33333333 -0.33333333  0.50000000       0.009
  -0.16666667 -0.33333333  0.16666667       0.019
  -0.33333333 -0.16666667  0.33333333       0.019
  -0.16666667 -0.16666667  0.16666667       0.009
  -0.33333333  0.33333333  0.33333333       0.019
   0.50000000  0.50000000  0.33333333       0.009
   0.33333333 -0.33333333  0.50000000       0.009
  -0.33333333  0.50000000  0.33333333       0.019
   0.50000000 -0.33333333  0.50000000       0.019
  -0.33333333 -0.33333333  0.33333333       0.009
   0.50000000  0.50000000  0.50000000       0.005

 position of ions in fractional coordinates (direct lattice)
   0.75000000  0.25000000  0.50000000
   0.25000000  0.75000000  0.50000000
   0.50000000  0.00000000  0.50000000
   0.74548000  0.52482000  0.27029000
   0.25452000  0.47518000  0.72971000
   0.00000000  0.50000000  0.50000000
   0.52482000  0.25452000  0.77934000
   0.47518000  0.74548000  0.22066000
   0.75452000  0.02482000  0.77934000
   0.24548000  0.97518000  0.22066000
   0.97518000  0.75452000  0.72971000
   0.02482000  0.24548000  0.27029000
   0.24291000  0.25709000  0.50000000
   0.75709000  0.74291000  0.50000000
   0.25709000  0.75709000  0.01419000
   0.74291000  0.24291000  0.98581000

 position of ions in cartesian coordinates  (Angst):
   4.11529329  1.42065788  1.24130559
  -0.88853153  4.26197365  1.24130559
   3.30860285  0.00000000  2.36829029
   3.15362171  2.98235868 -0.97374158
   0.07314004  2.70027285  3.45635276
  -1.69522197  2.84131576  2.36829029
   2.60990610  1.44634338  3.69140672
   0.61685565  4.23628815 -1.20879554
   4.90866322  0.14104291  3.69140672
  -1.68190147  5.54158861 -1.20879554
   3.89480889  4.28765914  1.20238335
  -0.66804713  1.39497239  1.28022783
   0.73573620  1.46094774  2.36829029
   2.49102555  4.22168379  0.11432088
  -0.86565379  4.30226350 -2.18673479
   4.09241554  1.38036802  4.66934597

 k-point   1 :   0.0000 0.0000 0.0000  plane waves:    8723
 k-point   2 :   0.1667-0.0000 0.0000  plane waves:    8734
 k-point   3 :   0.1667-0.0000-0.1667  plane waves:    8734
 k-point   4 :   0.3333-0.0000 0.0000  plane waves:    8759
 k-point   5 :   0.3333 0.0000-0.3333  plane waves:    8759
 k-point   6 :   0.5000-0.0000 0.0000  plane waves:    8778
 k-point   7 :   0.5000-0.0000 0.5000  plane waves:    8778
 k-point   8 :   0.1667 0.1667 0.0000  plane waves:    8754
 k-point   9 :   0.3333-0.0000-0.1667  plane waves:    8754
 k-point  10 :   0.1667 0.1667-0.3333  plane waves:    8754
 k-point  11 :   0.3333 0.1667 0.0000  plane waves:    8774
 k-point  12 :   0.5000-0.0000-0.3333  plane waves:    8774
 k-point  13 :   0.1667 0.3333 0.5000  plane waves:    8774
 k-point  14 :   0.0000 0.5000-0.1667  plane waves:    8774
 k-point  15 :   0.5000 0.1667 0.0000  plane waves:    8782
 k-point  16 :  -0.3333-0.0000 0.5000  plane waves:    8782
 k-point  17 :   0.1667 0.5000 0.3333  plane waves:    8782
 k-point  18 :   0.0000-0.3333-0.1667  plane waves:    8782
 k-point  19 :  -0.3333 0.1667 0.0000  plane waves:    8767
 k-point  20 :  -0.1667-0.0000 0.3333  plane waves:    8767
 k-point  21 :   0.1667-0.3333 0.1667  plane waves:    8767
 k-point  22 :   0.0000-0.1667-0.1667  plane waves:    8767
 k-point  23 :  -0.1667 0.1667 0.0000  plane waves:    8767
 k-point  24 :  -0.0000-0.0000 0.1667  plane waves:    8767
 k-point  25 :   0.3333 0.3333 0.0000  plane waves:    8772
 k-point  26 :  -0.3333 0.0000-0.3333  plane waves:    8772
 k-point  27 :   0.3333 0.3333 0.3333  plane waves:    8772
 k-point  28 :   0.5000 0.3333 0.0000  plane waves:    8764
 k-point  29 :  -0.1667-0.0000 0.5000  plane waves:    8764
 k-point  30 :   0.3333 0.5000 0.1667  plane waves:    8764
 k-point  31 :   0.0000-0.1667-0.3333  plane waves:    8764
 k-point  32 :  -0.3333 0.3333 0.0000  plane waves:    8773
 k-point  33 :  -0.0000-0.0000 0.3333  plane waves:    8773
 k-point  34 :   0.5000 0.5000 0.0000  plane waves:    8778
 k-point  35 :   0.0000-0.0000 0.5000  plane waves:    8778
 k-point  36 :   0.1667 0.1667 0.1667  plane waves:    8774
 k-point  37 :   0.5000-0.1667-0.1667  plane waves:    8774
 k-point  38 :   0.1667 0.1667 0.5000  plane waves:    8774
 k-point  39 :   0.3333 0.1667 0.1667  plane waves:    8770
 k-point  40 :  -0.3333-0.1667-0.3333  plane waves:    8770
 k-point  41 :  -0.1667 0.1667 0.1667  plane waves:    8766
 k-point  42 :   0.3333 0.3333 0.1667  plane waves:    8758
 k-point  43 :  -0.1667-0.1667-0.3333  plane waves:    8758
 k-point  44 :  -0.3333 0.3333 0.1667  plane waves:    8770
 k-point  45 :   0.1667-0.1667 0.3333  plane waves:    8770
 k-point  46 :  -0.1667 0.3333 0.1667  plane waves:    8767
 k-point  47 :   0.3333-0.1667-0.3333  plane waves:    8767
 k-point  48 :   0.5000 0.5000 0.1667  plane waves:    8748
 k-point  49 :   0.1667-0.1667 0.5000  plane waves:    8748
 k-point  50 :  -0.3333 0.5000 0.1667  plane waves:    8783
 k-point  51 :   0.3333-0.1667 0.3333  plane waves:    8783
 k-point  52 :   0.5000-0.3333-0.3333  plane waves:    8783
 k-point  53 :  -0.1667 0.3333 0.5000  plane waves:    8783
 k-point  54 :  -0.1667 0.5000 0.1667  plane waves:    8791
 k-point  55 :   0.5000-0.1667 0.5000  plane waves:    8791
 k-point  56 :  -0.3333-0.3333 0.1667  plane waves:    8776
 k-point  57 :   0.5000-0.1667 0.3333  plane waves:    8776
 k-point  58 :  -0.3333-0.3333 0.5000  plane waves:    8776
 k-point  59 :  -0.1667-0.3333 0.1667  plane waves:    8776
 k-point  60 :  -0.3333-0.1667 0.3333  plane waves:    8776
 k-point  61 :  -0.1667-0.1667 0.1667  plane waves:    8768
 k-point  62 :  -0.3333 0.3333 0.3333  plane waves:    8786
 k-point  63 :   0.5000 0.5000 0.3333  plane waves:    8788
 k-point  64 :   0.3333-0.3333 0.5000  plane waves:    8788
 k-point  65 :  -0.3333 0.5000 0.3333  plane waves:    8786
 k-point  66 :   0.5000-0.3333 0.5000  plane waves:    8786
 k-point  67 :  -0.3333-0.3333 0.3333  plane waves:    8780
 k-point  68 :   0.5000 0.5000 0.5000  plane waves:    8808

 maximum and minimum number of plane-waves per node :      4440     4326

 maximum number of plane-waves:      8808
 maximum index in each direction:
   IXMAX=   14   IYMAX=   14   IZMAX=   14
   IXMIN=  -14   IYMIN=  -14   IZMIN=  -14

 parallel 3D FFT for wavefunctions:
    minimum data exchange during FFTs selected (reduces bandwidth)
 parallel 3D FFT for charge:
    minimum data exchange during FFTs selected (reduces bandwidth)

 Broyden mixing: mesh for mixing (old mesh)
   NGX = 27   NGY = 27   NGZ = 27
  (NGX  =112   NGY  =112   NGZ  =112)
  gives a total of  19683 points

 initial charge density was supplied:
 charge density of overlapping atoms calculated
 number of electron     162.0000000 magnetization
 keeping initial charge density in first step

 Maximum index for augmentation-charges        20227 (set IRDMAX)

 First call to EWALD:  gamma=   0.277
 Maximum number of real-space cells 3x 3x 3
 Maximum number of reciprocal cells 3x 3x 3

--------------------------------------- Iteration      1(   1)  ---------------------------------------

 eigenvalue-minimisations  : 14556
 total energy-change (2. order) : 0.2034286E+04  (-0.1128940E+05)
 number of electron     162.0000000 magnetization
 augmentation part      162.0000000 magnetization

 Free energy of the ion-electron system (eV)
  alpha Z        PSCENC =       860.24277673
  Ewald energy   TEWEN  =    -12574.08604222
  -Hartree energ DENC   =     -6159.58838142
  -exchange      EXHF   =         0.00000000
  -V(xc)+E(xc)   XCENC  =       776.00911665
  PAW double counting   =     15278.13859621   -15202.21075033
  entropy T*S    EENTRO =        -0.00129273
  eigenvalues    EBANDS =      -121.64846398
  atomic energy  EATOM  =     19177.43064738
  free energy    TOTEN  =      2034.28620629 eV

  energy without entropy =     2034.28749902  energy(sigma->0) =     2034.28685266

[...]

 eigenvalue-minimisations  : 15132
 total energy-change (2. order) :-0.2242658E+04  (-0.2174695E+04)
 number of electron     162.0000000 magnetization
 augmentation part      162.0000000 magnetization

[...]

 eigenvalue-minimisations  :     0
 total energy-change (2. order) : 0.8995844E+02  (-0.1448503E+02)
 number of electron     162.0000001 magnetization
 augmentation part       24.0137862 magnetization

[...]

--------------------------------------- Iteration      1(  34)  ---------------------------------------

 eigenvalue-minimisations  :     0
 total energy-change (2. order) :-0.7275958E-09  (-0.3445313E-09)
 number of electron     162.0000001 magnetization
 augmentation part       24.2684296 magnetization

 Free energy of the ion-electron system (eV)
  alpha Z        PSCENC =       860.24277673
  Ewald energy   TEWEN  =    -12574.08604222
  -Hartree energ DENC   =     -6217.25798811
  -exchange      EXHF   =         0.00000000
  -V(xc)+E(xc)   XCENC  =       803.53671844
  PAW double counting   =     34639.94316686   -34583.75524836
  entropy T*S    EENTRO =        -0.00270947
  eigenvalues    EBANDS =     -2338.40005595
  atomic energy  EATOM  =     19177.43064738
  free energy    TOTEN  =      -232.34873468 eV

  energy without entropy =     -232.34602521  energy(sigma->0) =     -232.34737994

  average scaling for gradient   0.8240

 average (electrostatic) potential at core
  the test charge radii are     0.7672  1.0818  0.9892
  (the norm of the test charge is              1.0000)
       1 -26.2046       2 -26.2046       3 -77.7070       4 -77.2187       5 -77.2187
       6 -77.7067       7 -77.2188       8 -77.2188       9 -77.2188      10 -77.2188
      11 -77.2187      12 -77.2187      13 -83.5933      14 -83.5933      15 -83.5936
      16 -83.5936

 E-fermi :   8.8988     XC(G=0): -12.0499     alpha+bet :-16.3802

 Fermi energy:         8.8988123967

 k-point     1 :       0.0000    0.0000    0.0000
  band No.  band energies     occupation
      1     -55.0629      2.00000
      2     -55.0390      2.00000
      3     -53.7975      2.00000
      4     -53.7973      2.00000
      5     -53.6749      2.00000
      6     -53.6646      2.00000
      7     -53.6645      2.00000
      8     -53.5951      2.00000
      9     -53.1380      2.00000
     10     -53.0724      2.00000
     11     -30.9544      2.00000
     12     -30.9538      2.00000
     13     -30.2719      2.00000
     14     -30.2715      2.00000
     15     -28.5225      2.00000
     16     -28.1632      2.00000
     17     -28.1573      2.00000
     18     -28.1569      2.00000
     19     -28.0867      2.00000
     20     -28.0822      2.00000
     21     -27.9094      2.00000
     22     -27.6642      2.00000
     23     -27.5928      2.00000
     24     -27.5511      2.00000
     25     -27.5509      2.00000
     26     -27.3640      2.00000
     27     -27.3392      2.00000
     28     -27.1262      2.00000
     29     -26.9668      2.00000
     30     -26.9667      2.00000
     31     -26.8939      2.00000
     32     -26.8595      2.00000
     33     -26.8595      2.00000
     34     -26.7923      2.00000
     35     -26.6381      2.00000
     36     -26.5768      2.00000
     37     -25.1826      2.00000
     38     -25.1825      2.00000
     39     -24.8852      2.00000
     40     -24.8850      2.00000
     41      -1.8595      2.00000
     42      -0.0339      2.00000
     43       0.7719      2.00000
     44       0.7722      2.00000
     45       1.0353      2.00000
     46       1.8812      2.00000
     47       2.3608      2.00000
     48       2.3610      2.00000
     49       2.3757      2.00000
     50       2.5020      2.00000
     51       2.5021      2.00000
     52       2.9652      2.00000
     53       3.2376      2.00000
     54       3.5553      2.00000
     55       3.8729      2.00000
     56       3.8768      2.00000
     57       4.0820      2.00000
     58       4.0820      2.00000
     59       4.4331      2.00000
     60       4.4339      2.00000
[...]
     88      10.2990      0.00000
     89      10.2993      0.00000
     90      10.3384      0.00000
     91      10.3516      0.00000
     92      10.6482      0.00000
     93      10.6705      0.00000
     94      10.6707      0.00000
     95      10.6808      0.00000
     96      11.4783      0.00000
     97      11.8385      0.00000
     98      12.0825      0.00000
     99      12.2571      0.00000
    100      12.2751      0.00000
    101      12.2826      0.00000
    102      12.2996      0.00000

[...]

 k-point    68 :       0.5000    0.5000    0.5000
  band No.  band energies     occupation
      1     -55.0629      2.00000
      2     -55.0389      2.00000
      3     -53.7975      2.00000
      4     -53.7974      2.00000
      5     -53.6756      2.00000
      6     -53.6645      2.00000
      7     -53.6644      2.00000
      8     -53.5945      2.00000
      9     -53.1380      2.00000
     10     -53.0723      2.00000
     11     -30.9542      2.00000
     12     -30.9536      2.00000
     13     -30.2721      2.00000
     14     -30.2717      2.00000
     15     -28.5203      2.00000
     16     -28.1635      2.00000
     17     -28.1580      2.00000
     18     -28.1576      2.00000
     19     -28.1001      2.00000
     20     -28.0700      2.00000
     21     -27.9104      2.00000
     22     -27.6655      2.00000
     23     -27.5917      2.00000
     24     -27.5509      2.00000
     25     -27.5508      2.00000
     26     -27.3651      2.00000
     27     -27.3392      2.00000
     28     -27.1255      2.00000
     29     -26.9654      2.00000
     30     -26.9653      2.00000
     31     -26.8764      2.00000
     32     -26.8605      2.00000
     33     -26.8604      2.00000
     34     -26.8068      2.00000
     35     -26.6468      2.00000
     36     -26.5706      2.00000
     37     -25.1823      2.00000
     38     -25.1822      2.00000
     39     -24.8854      2.00000
     40     -24.8853      2.00000
     41      -1.4015      2.00000
     42      -0.2963      2.00000
     43       0.3454      2.00000
     44       0.3457      2.00000
     45       1.1135      2.00000
     46       1.8638      2.00000
     47       2.1656      2.00000
     48       2.5623      2.00000
     49       2.5625      2.00000
     50       2.6452      2.00000
     51       2.6454      2.00000
     52       2.8711      2.00000
     53       3.1460      2.00000
     54       3.4903      2.00000
     55       3.5124      2.00000
     56       3.8665      2.00000
     57       4.1475      2.00000
     58       4.1475      2.00000
     59       4.2546      2.00000
     60       4.6687      2.00000
[...]
     88       9.9174      0.00000
     89       9.9174      0.00000
     90      10.1487      0.00000
     91      10.1516      0.00000
     92      10.1517      0.00000
     93      11.2128      0.00000
     94      11.2128      0.00000
     95      11.4361      0.00000
     96      11.8051      0.00000
     97      11.8053      0.00000
     98      11.8719      0.00000
     99      12.1794      0.00000
    100      12.1953      0.00000
    101      12.7567      0.00000
    102      12.9889      0.00000

 soft charge-density along one line, spin component           1
         0         1         2         3         4         5         6         7         8         9
 total charge-density along one line

------------------------ aborting loop because EDIFF is reached ----------------------------------------

  FREE ENERGIE OF THE ION-ELECTRON SYSTEM (eV)
  free  energy   TOTEN  =      -232.34873468 eV

  energy  without entropy=     -232.34602521  energy(sigma->0) =     -232.34737994

 writing wavefunctions