 vasp.6.2.0 18Jan21 (build Jan 05 2022 15:41:44) complex

 executed on             LinuxIFC date 2025.05.07  19:51:42

 INCAR:
   SYSTEM = routine with relax: pwdword
   ICHARG = 2
   NPAR = 6
   KPAR = 2
   NCORE = 2
   ADDGRID = T
   PREC = Acc
   ENCUT = 600
   METAGGA = R2SCAN
   LASPH = .TRUE.
   LMIXTAU = .FALSE.
   ALGO = A
   EDIFF = 1E-9
   NELM = 100
   NELMIN = 6
   IALGO = 38
   LREAL = F
   NSW = 0
   ISIF = -1
   ISMEAR = 0
   SIGMA = 0.02
   SYMPREC = 1E-4

 POTCAR:    PAW_PBE B 06Sep2000
 POTCAR:    PAW_PBE Mo_sv 02Feb2006
 POTCAR:    PAW_PBE Si 05Jan2001
|           W    W    AA    RRRRR   N    N  II  N    N   GGGG   !!!           |
|           W    W   A  A   R    R  NN   N  II  NN   N  G    G  !!!           |
|           W    W  A    A  R    R  N N  N  II  N N  N  G       !!!           |
|           W WW W  AAAAAA  RRRRR   N  N N  II  N  N N  G  GGG   !            |
|           WW  WW  A    A  R   R   N   NN  II  N   NN  G    G                |
|           W    W  A    A  R    R  N    N  II  N    N   GGGG   !!!           |
|     For optimal performance we recommend to set                             |
|       NCORE = 2 up to number-of-cores-per-socket                            |
|     This setting can greatly improve the performance of VASP for DFT.       |
|     The default, NCORE=1 might be grossly inefficient on modern             |
|     multi-core architectures or massively parallel machines. Do your        |
|     Unfortunately you need to use the default for GW and RPA                |
|     calculations (for HF NCORE is supported but not extensively tested      |
|     yet).                                                                   |

 POTCAR:    PAW_PBE B 06Sep2000
   VRHFIN =B: s2p1

   TITEL  = PAW_PBE B 06Sep2000
   POMASS =   10.811; ZVAL   =    3.000    mass and valenz
   ENMAX  =  318.614; ENMIN  =  238.960 eV

 POTCAR:    PAW_PBE Mo_sv 02Feb2006
   VRHFIN =Mo: 4p5s4d

   TITEL  = PAW_PBE Mo_sv 02Feb2006
   POMASS =   95.940; ZVAL   =   14.000    mass and valenz
   ENMAX  =  242.676; ENMIN  =  182.007 eV

 POTCAR:    PAW_PBE Si 05Jan2001
   VRHFIN =Si: s2p2

   TITEL  = PAW_PBE Si 05Jan2001
   POMASS =   28.085; ZVAL   =    4.000    mass and valenz
   ENMAX  =  245.345; ENMIN  =  184.009 eV

  PAW_PBE B 06Sep2000                   :
  PAW_PBE Mo_sv 02Feb2006               :
  PAW_PBE Si 05Jan2001                  :

 POSCAR: EA198
  positions in direct lattice

 METAGGA = R2SCA    LMAXTAU =  6    LMIXTAU =  F

 ion  position               nearest neighbor table
   1  0.500  0.000  0.500-   7 2.20   8 2.20   5 2.23   4 2.23
   2  0.000  0.500  0.500-   4 2.20   5 2.20   7 2.23   8 2.23
   3  0.500  0.500  0.500-  12 2.21  11 2.21   7 2.22   8 2.22  10 3.13  10 3.13   6 3.13   6 3.13

   4  0.248  0.748  0.997-   2 2.20  10 2.22   6 2.22   1 2.23   8 3.13   7 3.13   7 3.13   8 3.13
                            11 3.14  12 3.14  12 3.14  11 3.14
   5  0.752  0.252  0.003-   2 2.20  10 2.22   6 2.22   1 2.23   7 3.13   8 3.13   8 3.13   7 3.13
                            12 3.14  11 3.14  11 3.14  12 3.14
   6  0.500  0.000  0.000-  11 2.21  12 2.21   4 2.22   5 2.22   9 3.13   9 3.13   3 3.13   3 3.13

   7  0.748  0.752  0.500-   1 2.20   3 2.22   9 2.22   2 2.23   5 3.13   4 3.13   4 3.13   5 3.13
                            11 3.14  11 3.14  12 3.14  12 3.14
   8  0.252  0.248  0.500-   1 2.20   3 2.22   9 2.22   2 2.23   5 3.13   4 3.13   5 3.13   4 3.13
                            12 3.14  12 3.14  11 3.14  11 3.14
   9  0.000  0.000  0.500-  11 2.21  12 2.21   7 2.22   8 2.22   6 3.13   6 3.13  10 3.13  10 3.13

  10  0.000  0.500  0.000-  11 2.21  12 2.21   4 2.22   5 2.22   3 3.13   3 3.13   9 3.13   9 3.13

  11  0.250  0.250  0.000-   3 2.21   9 2.21  10 2.21   6 2.21   7 3.14   7 3.14   4 3.14   5 3.14
                             8 3.14   8 3.14   5 3.14   4 3.14
  12  0.750  0.750  0.000-   9 2.21   3 2.21  10 2.21   6 2.21   8 3.14   8 3.14   5 3.14   4 3.14
                             7 3.14   7 3.14   4 3.14   5 3.14

  LATTYP: Found a body centered tetragonal cell.
 ALAT       =     6.2600814319
 C/A-ratio  =     1.4192561197

  Lattice vectors:

 A1 = (   5.4246098163,   0.0000000000,  -3.1468135873)
 A2 = (  -1.7997020558,   5.1173688718,  -3.1468135873)
 A3 = (   0.0000000000,   0.0000000000,   6.2712700000)

Analysis of symmetry for initial positions (statically):
 Subroutine PRICEL returns:
 Original cell was already a primitive cell.

 Routine SETGRP: Setting up the symmetry group for a
 body centered tetragonal supercell.

 Subroutine GETGRP returns: Found 16 space group operations
 (whereof  8 operations were pure point group operations)
 out of a pool of 16 trial point group operations.

The static configuration has the point symmetry C_4h.
 The point group associated with its full space group is D_4h.

Analysis of symmetry for dynamics (positions and initial velocities):
 Subroutine PRICEL returns:
 Original cell was already a primitive cell.

 Routine SETGRP: Setting up the symmetry group for a
 body centered tetragonal supercell.

 Subroutine GETGRP returns: Found 16 space group operations
 (whereof  8 operations were pure point group operations)
 out of a pool of 16 trial point group operations.

The dynamic configuration has the point symmetry C_4h.
 The point group associated with its full space group is D_4h.

 Subroutine INISYM returns: Found 16 space group operations
 (whereof  8 operations are pure point group operations),
 and found     1 'primitive' translations

                                     Primitive cell

  volume of cell :     174.0888

  direct lattice vectors                    reciprocal lattice vectors
     5.424609816  0.000000000 -3.146813587     0.184345056  0.064831398  0.000000000
    -1.799702056  5.117368872 -3.146813587     0.000000000  0.195412921  0.000000000
     0.000000000  0.000000000  6.271270000     0.092501124  0.130586047  0.159457335

  length of vectors
     6.271270000  6.271270000  6.271270000     0.195412921  0.195412921  0.225911078

  position of ions in fractional coordinates (direct lattice)
     0.500000000  0.000000000  0.500000000
     0.000000000  0.500000000  0.500000000
     0.500000000  0.500000000  0.500000000
     0.248420000  0.748420000  0.996850000
     0.751580000  0.251580000  0.003150000
     0.500000000  0.000000000  1.000000000
     0.748420000  0.751580000  0.500000000
     0.251580000  0.248420000  0.500000000
     0.000000000  0.000000000  0.500000000
     0.000000000  0.500000000  1.000000000
     0.250000000  0.250000000  1.000000000
     0.750000000  0.750000000  1.000000000

  ion indices of the primitive-cell ions
   primitive index   ion index
                 1           1
                 2           2
                 3           3
                 4           4
                 5           5
                 6           6
                 7           7
                 8           8
                 9           9
                10          10
                11          11
                12          12

 KPOINTS: EA

Automatic generation of k-mesh.
 Grid dimensions read from file:
 generate k-points for:    7    7    8

 Generating k-lattice:

  Cartesian coordinates                     Fractional coordinates (reciprocal lattice)
     0.026335008  0.009261628  0.000000000     0.142857143  0.000000000  0.000000000
     0.000000000  0.027916132  0.000000000     0.000000000  0.142857143  0.000000000
     0.011562641  0.016323256  0.019932167    -0.000000000 -0.000000000  0.125000000

  Length of vectors
     0.027916132  0.027916132  0.028238885

  Shift w.r.t. Gamma in fractional coordinates (k-lattice)
     0.000000000  0.000000000  0.000000000

 WARNING: IBZKPT: internal override: KBLOWUP is changed to .FALSE.
      ... skipping the blow-up phase ...

 Subroutine IBZKPT returns following result:

 Found    116 irreducible k-points:

 Following reciprocal coordinates:
            Coordinates               Weight
  0.000000  0.000000  0.000000      1.000000
  0.142857  0.000000  0.000000      4.000000
  0.285714  0.000000  0.000000      4.000000
  0.428571  0.000000  0.000000      4.000000
  0.142857  0.142857  0.000000      2.000000
  0.285714  0.142857  0.000000      4.000000
  0.428571  0.142857  0.000000      4.000000
 -0.428571  0.142857  0.000000      4.000000
 -0.285714  0.142857  0.000000      4.000000
 -0.142857  0.142857  0.000000      2.000000
  0.285714  0.285714  0.000000      2.000000
  0.428571  0.285714  0.000000      4.000000
 -0.428571  0.285714  0.000000      4.000000
 -0.285714  0.285714  0.000000      2.000000
  0.428571  0.428571  0.000000      2.000000
 -0.428571  0.428571  0.000000      2.000000
  0.000000  0.000000  0.125000      2.000000
  0.142857 -0.000000  0.125000      4.000000
  0.285714  0.000000  0.125000      4.000000
  0.428571  0.000000  0.125000      4.000000
 -0.428571  0.000000  0.125000      4.000000
 -0.285714  0.000000  0.125000      4.000000
 -0.142857  0.000000  0.125000      4.000000
  0.142857  0.142857  0.125000      2.000000
  0.285714  0.142857  0.125000      4.000000
  0.428571  0.142857  0.125000      4.000000
 -0.428571  0.142857  0.125000      4.000000
 -0.285714  0.142857  0.125000      4.000000
 -0.142857  0.142857  0.125000      4.000000
  0.285714  0.285714  0.125000      2.000000
  0.428571  0.285714  0.125000      4.000000
 -0.428571  0.285714  0.125000      4.000000
 -0.285714  0.285714  0.125000      4.000000
 -0.142857  0.285714  0.125000      4.000000
  0.428571  0.428571  0.125000      2.000000
 -0.428571  0.428571  0.125000      4.000000
 -0.285714  0.428571  0.125000      4.000000
 -0.142857  0.428571  0.125000      4.000000
 -0.428571 -0.428571  0.125000      2.000000
 -0.285714 -0.428571  0.125000      4.000000
 -0.142857 -0.428571  0.125000      4.000000
 -0.285714 -0.285714  0.125000      2.000000
 -0.142857 -0.285714  0.125000      4.000000
 -0.142857 -0.142857  0.125000      2.000000
  0.000000  0.000000  0.250000      2.000000
  0.142857  0.000000  0.250000      4.000000
  0.285714  0.000000  0.250000      4.000000
  0.428571  0.000000  0.250000      4.000000
 -0.428571  0.000000  0.250000      4.000000
 -0.285714  0.000000  0.250000      4.000000
 -0.142857  0.000000  0.250000      4.000000
  0.142857  0.142857  0.250000      2.000000
  0.285714  0.142857  0.250000      4.000000
  0.428571  0.142857  0.250000      4.000000
 -0.428571  0.142857  0.250000      4.000000
 -0.285714  0.142857  0.250000      4.000000
 -0.142857  0.142857  0.250000      4.000000
  0.285714  0.285714  0.250000      2.000000
  0.428571  0.285714  0.250000      4.000000
 -0.428571  0.285714  0.250000      4.000000
[...]
  0.142857  0.000000  0.500000      4.000000
  0.285714  0.000000  0.500000      4.000000
  0.428571  0.000000  0.500000      4.000000
  0.142857  0.142857  0.500000      2.000000
  0.285714  0.142857  0.500000      4.000000
  0.428571  0.142857  0.500000      4.000000
 -0.428571  0.142857  0.500000      4.000000
 -0.285714  0.142857  0.500000      4.000000
 -0.142857  0.142857  0.500000      2.000000
  0.285714  0.285714  0.500000      2.000000
[...]
   0.42857143  0.14285714  0.25000000       0.010
  -0.42857143  0.14285714  0.25000000       0.010
  -0.28571429  0.14285714  0.25000000       0.010
  -0.14285714  0.14285714  0.25000000       0.010
   0.28571429  0.28571429  0.25000000       0.005
   0.42857143  0.28571429  0.25000000       0.010
  -0.42857143  0.28571429  0.25000000       0.010
[...]
   0.14285714  0.00000000  0.50000000       0.010
   0.28571429  0.00000000  0.50000000       0.010
   0.42857143  0.00000000  0.50000000       0.010
   0.14285714  0.14285714  0.50000000       0.005
   0.28571429  0.14285714  0.50000000       0.010
   0.42857143  0.14285714  0.50000000       0.010
  -0.42857143  0.14285714  0.50000000       0.010
  -0.28571429  0.14285714  0.50000000       0.010
  -0.14285714  0.14285714  0.50000000       0.005
   0.28571429  0.28571429  0.50000000       0.005
   0.42857143  0.28571429  0.50000000       0.010
  -0.42857143  0.28571429  0.50000000       0.010
  -0.28571429  0.28571429  0.50000000       0.005
   0.42857143  0.42857143  0.50000000       0.005
  -0.42857143  0.42857143  0.50000000       0.005

 position of ions in fractional coordinates (direct lattice)
   0.50000000  0.00000000  0.50000000
   0.00000000  0.50000000  0.50000000
   0.50000000  0.50000000  0.50000000
   0.24842000  0.74842000  0.99685000
   0.75158000  0.25158000  0.00315000
   0.50000000  0.00000000  0.00000000
   0.74842000  0.75158000  0.50000000
   0.25158000  0.24842000  0.50000000
   0.00000000  0.00000000  0.50000000
   0.00000000  0.50000000  0.00000000
   0.25000000  0.25000000  0.00000000
   0.75000000  0.75000000  0.00000000

 position of ions in cartesian coordinates  (Angst):
   2.71230491  0.00000000  1.56222821
  -0.89985103  2.55868444  1.56222821
   1.81245388  2.55868444 -0.01117859
   0.00064856  3.82994121  3.11464584
   3.62425920  1.28742766 -3.13700302
   2.71230491  0.00000000 -1.57340679
   2.70726641  3.84611210 -1.58458538
   0.91764135  1.27125678  1.56222821
   0.00000000  0.00000000  3.13563500
  -0.89985103  2.55868444 -1.57340679
   0.90622694  1.27934222 -1.57340679
   2.71868082  3.83802665 -4.72022038

 k-point   1 :   0.0000 0.0000 0.0000  plane waves:    5817
 k-point   2 :   0.1429 0.0000 0.0000  plane waves:    5835
 k-point   3 :   0.2857 0.0000 0.0000  plane waves:    5818
 k-point   4 :   0.4286 0.0000 0.0000  plane waves:    5812
 k-point   5 :   0.1429 0.1429 0.0000  plane waves:    5836
 k-point   6 :   0.2857 0.1429 0.0000  plane waves:    5813
 k-point   7 :   0.4286 0.1429 0.0000  plane waves:    5800
 k-point   8 :  -0.4286 0.1429 0.0000  plane waves:    5816
 k-point   9 :  -0.2857 0.1429 0.0000  plane waves:    5829
 k-point  10 :  -0.1429 0.1429 0.0000  plane waves:    5825
 k-point  11 :   0.2857 0.2857 0.0000  plane waves:    5812
 k-point  12 :   0.4286 0.2857 0.0000  plane waves:    5799
 k-point  13 :  -0.4286 0.2857 0.0000  plane waves:    5797
 k-point  14 :  -0.2857 0.2857 0.0000  plane waves:    5808
 k-point  15 :   0.4286 0.4286 0.0000  plane waves:    5812
 k-point  16 :  -0.4286 0.4286 0.0000  plane waves:    5800
 k-point  17 :   0.0000 0.0000 0.1250  plane waves:    5833
 k-point  18 :   0.1429-0.0000 0.1250  plane waves:    5826
 k-point  19 :   0.2857 0.0000 0.1250  plane waves:    5819
 k-point  20 :   0.4286 0.0000 0.1250  plane waves:    5803
 k-point  21 :  -0.4286 0.0000 0.1250  plane waves:    5815
 k-point  22 :  -0.2857 0.0000 0.1250  plane waves:    5837
 k-point  23 :  -0.1429 0.0000 0.1250  plane waves:    5837
 k-point  24 :   0.1429 0.1429 0.1250  plane waves:    5823
 k-point  25 :   0.2857 0.1429 0.1250  plane waves:    5797
 k-point  26 :   0.4286 0.1429 0.1250  plane waves:    5793
 k-point  27 :  -0.4286 0.1429 0.1250  plane waves:    5819
 k-point  28 :  -0.2857 0.1429 0.1250  plane waves:    5825
 k-point  29 :  -0.1429 0.1429 0.1250  plane waves:    5839
 k-point  30 :   0.2857 0.2857 0.1250  plane waves:    5825
 k-point  31 :   0.4286 0.2857 0.1250  plane waves:    5793
 k-point  32 :  -0.4286 0.2857 0.1250  plane waves:    5797
 k-point  33 :  -0.2857 0.2857 0.1250  plane waves:    5816
 k-point  34 :  -0.1429 0.2857 0.1250  plane waves:    5809
 k-point  35 :   0.4286 0.4286 0.1250  plane waves:    5802
 k-point  36 :  -0.4286 0.4286 0.1250  plane waves:    5792
 k-point  37 :  -0.2857 0.4286 0.1250  plane waves:    5797
 k-point  38 :  -0.1429 0.4286 0.1250  plane waves:    5800
 k-point  39 :  -0.4286-0.4286 0.1250  plane waves:    5821
 k-point  40 :  -0.2857-0.4286 0.1250  plane waves:    5800
 k-point  41 :  -0.1429-0.4286 0.1250  plane waves:    5812
 k-point  42 :  -0.2857-0.2857 0.1250  plane waves:    5813
 k-point  43 :  -0.1429-0.2857 0.1250  plane waves:    5832
 k-point  44 :  -0.1429-0.1429 0.1250  plane waves:    5824
 k-point  45 :   0.0000 0.0000 0.2500  plane waves:    5830
 k-point  46 :   0.1429 0.0000 0.2500  plane waves:    5802
 k-point  47 :   0.2857 0.0000 0.2500  plane waves:    5802
 k-point  48 :   0.4286 0.0000 0.2500  plane waves:    5815
 k-point  49 :  -0.4286 0.0000 0.2500  plane waves:    5820
 k-point  50 :  -0.2857 0.0000 0.2500  plane waves:    5824
 k-point  51 :  -0.1429 0.0000 0.2500  plane waves:    5832
 k-point  52 :   0.1429 0.1429 0.2500  plane waves:    5788
 k-point  53 :   0.2857 0.1429 0.2500  plane waves:    5812
 k-point  54 :   0.4286 0.1429 0.2500  plane waves:    5803
 k-point  55 :  -0.4286 0.1429 0.2500  plane waves:    5818
 k-point  56 :  -0.2857 0.1429 0.2500  plane waves:    5816
 k-point  57 :  -0.1429 0.1429 0.2500  plane waves:    5813
 k-point  58 :   0.2857 0.2857 0.2500  plane waves:    5813
 k-point  59 :   0.4286 0.2857 0.2500  plane waves:    5799
 k-point  60 :  -0.4286 0.2857 0.2500  plane waves:    5800
[...]
 k-point 102 :   0.1429 0.0000 0.5000  plane waves:    5804
 k-point 103 :   0.2857 0.0000 0.5000  plane waves:    5805
 k-point 104 :   0.4286 0.0000 0.5000  plane waves:    5801
 k-point 105 :   0.1429 0.1429 0.5000  plane waves:    5792
 k-point 106 :   0.2857 0.1429 0.5000  plane waves:    5814
 k-point 107 :   0.4286 0.1429 0.5000  plane waves:    5799
 k-point 108 :  -0.4286 0.1429 0.5000  plane waves:    5805
 k-point 109 :  -0.2857 0.1429 0.5000  plane waves:    5803
 k-point 110 :  -0.1429 0.1429 0.5000  plane waves:    5814
 k-point 111 :   0.2857 0.2857 0.5000  plane waves:    5807
 k-point 112 :   0.4286 0.2857 0.5000  plane waves:    5800
 k-point 113 :  -0.4286 0.2857 0.5000  plane waves:    5805
 k-point 114 :  -0.2857 0.2857 0.5000  plane waves:    5808
 k-point 115 :   0.4286 0.4286 0.5000  plane waves:    5796
 k-point 116 :  -0.4286 0.4286 0.5000  plane waves:    5794

 maximum and minimum number of plane-waves per node :      2937     2874

 maximum number of plane-waves:      5839
 maximum index in each direction:
   IXMAX=   12   IYMAX=   12   IZMAX=   12
   IXMIN=  -12   IYMIN=  -12   IZMIN=  -13

 parallel 3D FFT for wavefunctions:
    minimum data exchange during FFTs selected (reduces bandwidth)
 parallel 3D FFT for charge:
    minimum data exchange during FFTs selected (reduces bandwidth)

 Broyden mixing: mesh for mixing (old mesh)
   NGX = 25   NGY = 25   NGZ = 25
  (NGX  =100   NGY  =100   NGZ  =100)
  gives a total of  15625 points

 initial charge density was supplied:
 charge density of overlapping atoms calculated
 number of electron     126.0000000 magnetization
 keeping initial charge density in first step

 Maximum index for augmentation-charges        21752 (set IRDMAX)

 First call to EWALD:  gamma=   0.317
 Maximum number of real-space cells 3x 3x 3
 Maximum number of reciprocal cells 3x 3x 3

--------------------------------------- Iteration      1(   1)  ---------------------------------------

 eigenvalue-minimisations  : 18336
 total energy-change (2. order) : 0.1505666E+04  (-0.8790205E+04)
 number of electron     126.0000000 magnetization
 augmentation part      126.0000000 magnetization

 Free energy of the ion-electron system (eV)
  alpha Z        PSCENC =       807.55278289
  Ewald energy   TEWEN  =    -12163.36503866
  -Hartree energ DENC   =     -3285.67646067
  -exchange      EXHF   =         0.00000000
  -V(xc)+E(xc)   XCENC  =       622.78994804
  PAW double counting   =     12139.29562609   -12091.82663909
  entropy T*S    EENTRO =        -0.00042390
  eigenvalues    EBANDS =       230.16414448
  atomic energy  EATOM  =     15246.73248675
  free energy    TOTEN  =      1505.66642591 eV

  energy without entropy =     1505.66684982  energy(sigma->0) =     1505.66663786

[...]

 eigenvalue-minimisations  : 19656
 total energy-change (2. order) :-0.1708901E+04  (-0.1669712E+04)
 number of electron     126.0000000 magnetization
 augmentation part      126.0000000 magnetization

[...]

 eigenvalue-minimisations  :     0
 total energy-change (2. order) : 0.6582201E+02  (-0.1057960E+02)
 number of electron     126.0000001 magnetization
 augmentation part       19.1958736 magnetization

[...]

 eigenvalue-minimisations  :     0
 total energy-change (2. order) :-0.1535227E-08  ( 0.1531434E-08)
 number of electron     126.0000001 magnetization
 augmentation part       19.4076772 magnetization

[...]

 eigenvalue-minimisations  :     0
 total energy-change (2. order) :-0.3779860E-08  ( 0.9629784E-09)
 number of electron     126.0000001 magnetization
 augmentation part       19.4076779 magnetization

[...]

 eigenvalue-minimisations  :     0
 total energy-change (2. order) :-0.5267793E-08  (-0.1140098E-09)
 number of electron     126.0000001 magnetization
 augmentation part       19.4076780 magnetization

[...]

--------------------------------------- Iteration      1(  34)  ---------------------------------------

 eigenvalue-minimisations  :     0
 total energy-change (2. order) : 0.4838512E-09  ( 0.4001736E-10)
 number of electron     126.0000001 magnetization
 augmentation part       19.4076782 magnetization

 Free energy of the ion-electron system (eV)
  alpha Z        PSCENC =       807.55278289
  Ewald energy   TEWEN  =    -12163.36503866
  -Hartree energ DENC   =     -3175.39839042
  -exchange      EXHF   =         0.00000000
  -V(xc)+E(xc)   XCENC  =       638.44386466
  PAW double counting   =     18360.69985803   -18333.07758258
  entropy T*S    EENTRO =        -0.00177655
  eigenvalues    EBANDS =     -1603.42904391
  atomic energy  EATOM  =     15246.73248675
  free energy    TOTEN  =      -221.84283979 eV

  energy without entropy =     -221.84106323  energy(sigma->0) =     -221.84195151

  average scaling for gradient   1.1882

 average (electrostatic) potential at core
  the test charge radii are     0.7672  1.0818  0.9892
  (the norm of the test charge is              1.0000)
       1 -23.4866       2 -23.4820       3 -75.2957       4 -75.6530       5 -75.6530
       6 -75.2933       7 -75.6530       8 -75.6530       9 -75.2957      10 -75.2979
      11 -81.6004      12 -81.6004

 E-fermi :  10.9500     XC(G=0): -13.4506     alpha+bet :-18.3884

 Fermi energy:        10.9499592413

 k-point     1 :       0.0000    0.0000    0.0000
  band No.  band energies     occupation
      1     -52.2472      2.00000
      2     -52.1909      2.00000
      3     -51.8513      2.00000
      4     -51.8513      2.00000
      5     -51.5931      2.00000
      6     -51.5930      2.00000
      7     -51.2016      2.00000
      8     -51.1523      2.00000
      9     -28.0030      2.00000
     10     -27.9195      2.00000
     11     -25.7773      2.00000
     12     -25.7773      2.00000
     13     -25.6680      2.00000
     14     -25.6678      2.00000
     15     -25.5712      2.00000
     16     -25.5710      2.00000
     17     -25.5131      2.00000
     18     -25.3917      2.00000
     19     -25.3262      2.00000
     20     -25.3212      2.00000
     21     -25.3210      2.00000
     22     -25.0693      2.00000
     23     -25.0087      2.00000
     24     -25.0080      2.00000
     25     -24.9974      2.00000
     26     -24.8821      2.00000
     27     -24.8819      2.00000
     28     -24.6625      2.00000
     29     -24.5418      2.00000
     30     -24.5417      2.00000
     31     -23.0150      2.00000
     32     -22.9851      2.00000
     33      -0.2290      2.00000
     34       1.8268      2.00000
     35       3.2459      2.00000
     36       4.2776      2.00000
     37       5.0509      2.00000
     38       5.0510      2.00000
     39       5.2324      2.00000
     40       5.4407      2.00000
     41       5.4408      2.00000
     42       5.6879      2.00000
     43       5.8174      2.00000
     44       5.8175      2.00000
     45       6.0681      2.00000
     46       6.1586      2.00000
     47       6.4890      2.00000
     48       7.6550      2.00000
     49       7.6551      2.00000
     50       8.5248      2.00000
     51       8.7047      2.00000
     52       9.1514      2.00000
     53       9.2893      2.00000
     54       9.2894      2.00000
     55       9.5783      2.00000
     56       9.7508      2.00000
     57       9.7509      2.00000
     58       9.9391      2.00000
     59       9.9393      2.00000
     60      10.4139      2.00000
[...]
     64      11.0822      0.00000
     65      11.0890      0.00000
     66      11.3898      0.00000
     67      11.6212      0.00000
     68      11.6212      0.00000
     69      11.7086      0.00000
     70      11.7087      0.00000
     71      11.7702      0.00000
     72      12.2895      0.00000
     73      12.2895      0.00000
     74      12.4572      0.00000
     75      13.1320      0.00000
     76      13.7513      0.00000
     77      14.1589      0.00000
     78      14.5963      0.00000

[...]

 k-point   116 :      -0.4286    0.4286    0.5000
  band No.  band energies     occupation
      1     -52.2186      2.00000
      2     -52.2186      2.00000
      3     -51.8761      2.00000
      4     -51.8265      2.00000
      5     -51.6213      2.00000
      6     -51.5672      2.00000
      7     -51.1763      2.00000
      8     -51.1762      2.00000
      9     -27.9600      2.00000
     10     -27.9599      2.00000
     11     -25.8078      2.00000
     12     -25.8057      2.00000
     13     -25.7493      2.00000
     14     -25.6124      2.00000
     15     -25.6036      2.00000
     16     -25.5375      2.00000
     17     -25.3805      2.00000
     18     -25.3168      2.00000
     19     -25.3167      2.00000
     20     -25.3146      2.00000
     21     -25.3138      2.00000
     22     -25.2130      2.00000
     23     -25.0457      2.00000
     24     -25.0456      2.00000
     25     -24.9983      2.00000
     26     -24.7807      2.00000
     27     -24.7805      2.00000
     28     -24.7461      2.00000
     29     -24.6868      2.00000
     30     -24.4482      2.00000
     31     -23.0000      2.00000
     32     -22.9999      2.00000
     33       0.4166      2.00000
     34       1.8358      2.00000
     35       3.1068      2.00000
     36       3.8892      2.00000
     37       4.0258      2.00000
     38       4.5560      2.00000
     39       4.6332      2.00000
     40       4.6559      2.00000
     41       5.7369      2.00000
     42       5.9358      2.00000
     43       5.9382      2.00000
     44       6.4397      2.00000
     45       6.5015      2.00000
     46       6.6443      2.00000
     47       7.3614      2.00000
     48       7.6685      2.00000
     49       7.6832      2.00000
     50       7.7812      2.00000
     51       7.7948      2.00000
     52       7.8439      2.00000
     53       8.1285      2.00000
     54       8.2097      2.00000
     55      10.2099      2.00000
     56      10.2488      2.00000
     57      10.3351      2.00000
     58      10.4262      2.00000
     59      10.4492      2.00000
     60      10.5696      2.00000
[...]
     64      10.9125      1.99196
     65      10.9580      0.56805
     66      11.5458      0.00000
     67      12.0621      0.00000
     68      12.1254      0.00000
     69      12.7531      0.00000
     70      12.9994      0.00000
     71      13.0521      0.00000
     72      13.3715      0.00000
     73      13.3740      0.00000
     74      13.4758      0.00000
     75      14.0907      0.00000
     76      14.1764      0.00000
     77      14.4847      0.00000
     78      14.6706      0.00000

 soft charge-density along one line, spin component           1
         0         1         2         3         4         5         6         7         8         9
 total charge-density along one line

------------------------ aborting loop because EDIFF is reached ----------------------------------------

  FREE ENERGIE OF THE ION-ELECTRON SYSTEM (eV)
  free  energy   TOTEN  =      -221.84283979 eV

  energy  without entropy=     -221.84106323  energy(sigma->0) =     -221.84195151

 writing wavefunctions