 vasp.6.2.0 18Jan21 (build Jan 05 2022 15:41:44) complex

 executed on             LinuxIFC date 2025.05.07  16:05:21

 INCAR:
   SYSTEM = routine with relax: pwdword
   ICHARG = 2
   NPAR = 6
   KPAR = 2
   NCORE = 2
   ADDGRID = T
   PREC = Acc
   ENCUT = 600
   METAGGA = R2SCAN
   LASPH = .TRUE.
   LMIXTAU = .FALSE.
   ALGO = A
   EDIFF = 1E-9
   NELM = 100
   NELMIN = 6
   IALGO = 38
   LREAL = F
   NSW = 0
   ISIF = -1
   ISMEAR = 0
   SIGMA = 0.02
   SYMPREC = 1E-4

 POTCAR:    PAW_PBE B 06Sep2000
 POTCAR:    PAW_PBE Mo_sv 02Feb2006
 POTCAR:    PAW_PBE Si 05Jan2001
|           W    W    AA    RRRRR   N    N  II  N    N   GGGG   !!!           |
|           W    W   A  A   R    R  NN   N  II  NN   N  G    G  !!!           |
|           W    W  A    A  R    R  N N  N  II  N N  N  G       !!!           |
|           W WW W  AAAAAA  RRRRR   N  N N  II  N  N N  G  GGG   !            |
|           WW  WW  A    A  R   R   N   NN  II  N   NN  G    G                |
|           W    W  A    A  R    R  N    N  II  N    N   GGGG   !!!           |
|     For optimal performance we recommend to set                             |
|       NCORE = 2 up to number-of-cores-per-socket                            |
|     This setting can greatly improve the performance of VASP for DFT.       |
|     The default, NCORE=1 might be grossly inefficient on modern             |
|     multi-core architectures or massively parallel machines. Do your        |
|     Unfortunately you need to use the default for GW and RPA                |
|     calculations (for HF NCORE is supported but not extensively tested      |
|     yet).                                                                   |

 POTCAR:    PAW_PBE B 06Sep2000
   VRHFIN =B: s2p1

   TITEL  = PAW_PBE B 06Sep2000
   POMASS =   10.811; ZVAL   =    3.000    mass and valenz
   ENMAX  =  318.614; ENMIN  =  238.960 eV

 POTCAR:    PAW_PBE Mo_sv 02Feb2006
   VRHFIN =Mo: 4p5s4d

   TITEL  = PAW_PBE Mo_sv 02Feb2006
   POMASS =   95.940; ZVAL   =   14.000    mass and valenz
   ENMAX  =  242.676; ENMIN  =  182.007 eV

 POTCAR:    PAW_PBE Si 05Jan2001
   VRHFIN =Si: s2p2

   TITEL  = PAW_PBE Si 05Jan2001
   POMASS =   28.085; ZVAL   =    4.000    mass and valenz
   ENMAX  =  245.345; ENMIN  =  184.009 eV

  PAW_PBE B 06Sep2000                   :
  PAW_PBE Mo_sv 02Feb2006               :
  PAW_PBE Si 05Jan2001                  :

 POSCAR: EA70
  positions in direct lattice

 METAGGA = R2SCA    LMAXTAU =  6    LMIXTAU =  F

 ion  position               nearest neighbor table
   1  0.750  0.250  0.500-   4 2.19   6 2.19
   2  0.250  0.750  0.500-   4 2.19   6 2.19
   3  0.250  0.250  0.000-   7 2.19   8 2.19
   4  0.000  0.500  0.500-   1 2.19   2 2.19   7 2.98   8 2.98   8 2.98   7 2.98
   5  0.750  0.750  0.000-   7 2.19   8 2.19
   6  0.500  0.000  0.500-   1 2.19   2 2.19   7 2.98   8 2.98   7 2.98   8 2.98
   7  0.500  0.500  0.000-   3 2.19   5 2.19   4 2.98   6 2.98   6 2.98   4 2.98
   8  0.000  0.000  0.000-   3 2.19   5 2.19   4 2.98   6 2.98   4 2.98   6 2.98

  LATTYP: Found a body centered tetragonal cell.
 ALAT       =     5.9638076439
 C/A-ratio  =     1.4712513674

  Lattice vectors:

 A1 = (   5.1987125629,   0.0000000000,  -3.1628555533)
 A2 = (  -1.6427340632,   4.9323460046,  -3.1628555533)
 A3 = (   0.0000000000,   0.0000000000,   6.0852500000)

Analysis of symmetry for initial positions (statically):
 Subroutine PRICEL returns following result:

  LATTYP: Found a simple tetragonal cell.
 ALAT       =     4.2170318071
 C/A-ratio  =     1.0403360175

[...]

   2 primitive cells build up your supercell.

 Routine SETGRP: Setting up the symmetry group for a
 body centered tetragonal supercell.

 Subroutine GETGRP returns: Found 16 space group operations
 (whereof 16 operations were pure point group operations)
 out of a pool of 16 trial point group operations.

The static configuration has the point symmetry D_4h.

Analysis of symmetry for dynamics (positions and initial velocities):
 Subroutine PRICEL returns following result:

  LATTYP: Found a simple tetragonal cell.
 ALAT       =     4.2170318071
 C/A-ratio  =     1.0403360175

  Lattice vectors:

 A1 = (   3.4207233131,  -2.4661730023,   0.0000000000)
 A2 = (   1.7779892498,   2.4661730023,   2.9223944467)
 A3 = (  -1.7779892498,  -2.4661730023,   3.1628555533)

   2 primitive cells build up your supercell.

 Routine SETGRP: Setting up the symmetry group for a
 body centered tetragonal supercell.

 Subroutine GETGRP returns: Found 16 space group operations
 (whereof 16 operations were pure point group operations)
 out of a pool of 16 trial point group operations.

The dynamic configuration has the point symmetry D_4h.

 Subroutine INISYM returns: Found 16 space group operations
 (whereof 16 operations are pure point group operations),
 and found     2 'primitive' translations

                                     Primitive cell

  volume of cell :      78.0185

  direct lattice vectors                    reciprocal lattice vectors
     3.420723313 -2.466173002  0.000000000     0.192355316 -0.138678708  0.000000000
     1.777989250  2.466173002  2.922394447     0.099978157  0.138675435  0.164331786
    -1.777989250 -2.466173002  3.162855553    -0.092377159 -0.128132415  0.164331786

  length of vectors
     4.217031807  4.217065846  4.387130076     0.237133616  0.237131702  0.227939446

  position of ions in fractional coordinates (direct lattice)
     0.500000000  0.500000000  0.500000000
     0.000000000  0.000000000  0.500000000
     0.500000000  0.500000000  0.000000000
     0.000000000  0.000000000  0.000000000

  ion indices of the primitive-cell ions
   primitive index   ion index
                 1           1
                 2           3
                 3           4
                 4           7

 KPOINTS: EA

Automatic generation of k-mesh.
 Grid dimensions read from file:
 generate k-points for:    7    7    8

 Generating k-lattice:

  Cartesian coordinates                     Fractional coordinates (reciprocal lattice)
     0.027479331  0.009152082  0.000000000     0.142857143  0.000000000  0.000000000
     0.000000000  0.028963326  0.000000000     0.000000000  0.142857143  0.000000000
     0.012497270  0.017334429  0.020541473     0.000000000 -0.000000000  0.125000000

  Length of vectors
     0.028963326  0.028963326  0.029641463

  Shift w.r.t. Gamma in fractional coordinates (k-lattice)
     0.000000000  0.000000000  0.000000000

 WARNING: IBZKPT: internal override: KBLOWUP is changed to .FALSE.
      ... skipping the blow-up phase ...

 Subroutine IBZKPT returns following result:

 Found    116 irreducible k-points:

 Following reciprocal coordinates:
            Coordinates               Weight
  0.000000  0.000000  0.000000      1.000000
  0.142857 -0.000000  0.000000      4.000000
  0.285714 -0.000000  0.000000      4.000000
  0.428571  0.000000  0.000000      4.000000
  0.142857  0.142857  0.000000      2.000000
  0.285714  0.142857  0.000000      4.000000
  0.428571  0.142857  0.000000      4.000000
 -0.428571  0.142857  0.000000      4.000000
 -0.285714  0.142857  0.000000      4.000000
 -0.142857  0.142857  0.000000      2.000000
  0.285714  0.285714  0.000000      2.000000
  0.428571  0.285714  0.000000      4.000000
 -0.428571  0.285714  0.000000      4.000000
 -0.285714  0.285714  0.000000      2.000000
  0.428571  0.428571  0.000000      2.000000
 -0.428571  0.428571  0.000000      2.000000
  0.000000  0.000000  0.125000      2.000000
  0.142857 -0.000000  0.125000      4.000000
  0.285714  0.000000  0.125000      4.000000
  0.428571  0.000000  0.125000      4.000000
 -0.428571  0.000000  0.125000      4.000000
 -0.285714  0.000000  0.125000      4.000000
 -0.142857  0.000000  0.125000      4.000000
  0.142857  0.142857  0.125000      2.000000
  0.285714  0.142857  0.125000      4.000000
  0.428571  0.142857  0.125000      4.000000
 -0.428571  0.142857  0.125000      4.000000
 -0.285714  0.142857  0.125000      4.000000
 -0.142857  0.142857  0.125000      4.000000
  0.285714  0.285714  0.125000      2.000000
  0.428571  0.285714  0.125000      4.000000
 -0.428571  0.285714  0.125000      4.000000
 -0.285714  0.285714  0.125000      4.000000
 -0.142857  0.285714  0.125000      4.000000
  0.428571  0.428571  0.125000      2.000000
 -0.428571  0.428571  0.125000      4.000000
 -0.285714  0.428571  0.125000      4.000000
 -0.142857  0.428571  0.125000      4.000000
 -0.428571 -0.428571  0.125000      2.000000
 -0.285714 -0.428571  0.125000      4.000000
 -0.142857 -0.428571  0.125000      4.000000
 -0.285714 -0.285714  0.125000      2.000000
 -0.142857 -0.285714  0.125000      4.000000
 -0.142857 -0.142857  0.125000      2.000000
  0.000000  0.000000  0.250000      2.000000
  0.142857 -0.000000  0.250000      4.000000
  0.285714 -0.000000  0.250000      4.000000
  0.428571 -0.000000  0.250000      4.000000
 -0.428571 -0.000000  0.250000      4.000000
 -0.285714 -0.000000  0.250000      4.000000
 -0.142857 -0.000000  0.250000      4.000000
  0.142857  0.142857  0.250000      2.000000
  0.285714  0.142857  0.250000      4.000000
  0.428571  0.142857  0.250000      4.000000
 -0.428571  0.142857  0.250000      4.000000
 -0.285714  0.142857  0.250000      4.000000
 -0.142857  0.142857  0.250000      4.000000
  0.285714  0.285714  0.250000      2.000000
  0.428571  0.285714  0.250000      4.000000
 -0.428571  0.285714  0.250000      4.000000
[...]
  0.142857 -0.000000  0.500000      4.000000
  0.285714 -0.000000  0.500000      4.000000
  0.428571 -0.000000  0.500000      4.000000
  0.142857  0.142857  0.500000      2.000000
  0.285714  0.142857  0.500000      4.000000
  0.428571  0.142857  0.500000      4.000000
 -0.428571  0.142857  0.500000      4.000000
 -0.285714  0.142857  0.500000      4.000000
 -0.142857  0.142857  0.500000      2.000000
  0.285714  0.285714  0.500000      2.000000
  0.428571  0.285714  0.500000      4.000000
 -0.428571  0.285714  0.500000      4.000000
 -0.285714  0.285714  0.500000      2.000000
  0.428571  0.428571  0.500000      2.000000
 -0.428571  0.428571  0.500000      2.000000

 Following cartesian coordinates:
            Coordinates               Weight
  0.000000  0.000000  0.000000      1.000000
  0.027479  0.009152  0.000000      4.000000
  0.054959  0.018304  0.000000      4.000000
  0.082438  0.027456  0.000000      4.000000
  0.027479  0.038115  0.000000      2.000000
  0.054959  0.047267  0.000000      4.000000
  0.082438  0.056420  0.000000      4.000000
 -0.082438  0.001507  0.000000      4.000000
 -0.054959  0.010659  0.000000      4.000000
 -0.027479  0.019811  0.000000      2.000000
  0.054959  0.076231  0.000000      2.000000
  0.082438  0.085383  0.000000      4.000000
 -0.082438  0.030470  0.000000      4.000000
 -0.054959  0.039622  0.000000      2.000000
  0.082438  0.114346  0.000000      2.000000
 -0.082438  0.059434  0.000000      2.000000
  0.012497  0.017334  0.020541      2.000000
  0.039977  0.026487  0.020541      4.000000
  0.067456  0.035639  0.020541      4.000000
  0.094935  0.044791  0.020541      4.000000
 -0.069941 -0.010122  0.020541      4.000000
 -0.042461 -0.000970  0.020541      4.000000
[...]
   0.02250975  0.08914896  0.08216589       0.005
   0.10494774  0.14556853  0.08216589       0.005
   0.13242707  0.15472061  0.08216589       0.010
  -0.03244891  0.09980812  0.08216589       0.010
  -0.00496958  0.10896021  0.08216589       0.005
   0.13242707  0.18368394  0.08216589       0.005
  -0.03244891  0.12877145  0.08216589       0.005

 k-points in reciprocal lattice and weights: EA
   0.00000000  0.00000000  0.00000000       0.003
   0.14285714 -0.00000000  0.00000000       0.010
   0.28571429 -0.00000000  0.00000000       0.010
   0.42857143  0.00000000  0.00000000       0.010
   0.14285714  0.14285714  0.00000000       0.005
   0.28571429  0.14285714  0.00000000       0.010
   0.42857143  0.14285714  0.00000000       0.010
  -0.42857143  0.14285714  0.00000000       0.010
  -0.28571429  0.14285714  0.00000000       0.010
  -0.14285714  0.14285714  0.00000000       0.005
   0.28571429  0.28571429  0.00000000       0.005
   0.42857143  0.28571429  0.00000000       0.010
  -0.42857143  0.28571429  0.00000000       0.010
  -0.28571429  0.28571429  0.00000000       0.005
   0.42857143  0.42857143  0.00000000       0.005
  -0.42857143  0.42857143  0.00000000       0.005
   0.00000000  0.00000000  0.12500000       0.005
   0.14285714 -0.00000000  0.12500000       0.010
   0.28571429  0.00000000  0.12500000       0.010
   0.42857143  0.00000000  0.12500000       0.010
  -0.42857143  0.00000000  0.12500000       0.010
  -0.28571429  0.00000000  0.12500000       0.010
  -0.14285714  0.00000000  0.12500000       0.010
   0.14285714  0.14285714  0.12500000       0.005
   0.28571429  0.14285714  0.12500000       0.010
   0.42857143  0.14285714  0.12500000       0.010
  -0.42857143  0.14285714  0.12500000       0.010
  -0.28571429  0.14285714  0.12500000       0.010
  -0.14285714  0.14285714  0.12500000       0.010
   0.28571429  0.28571429  0.12500000       0.005
   0.42857143  0.28571429  0.12500000       0.010
  -0.42857143  0.28571429  0.12500000       0.010
  -0.28571429  0.28571429  0.12500000       0.010
  -0.14285714  0.28571429  0.12500000       0.010
   0.42857143  0.42857143  0.12500000       0.005
  -0.42857143  0.42857143  0.12500000       0.010
  -0.28571429  0.42857143  0.12500000       0.010
  -0.14285714  0.42857143  0.12500000       0.010
  -0.42857143 -0.42857143  0.12500000       0.005
  -0.28571429 -0.42857143  0.12500000       0.010
  -0.14285714 -0.42857143  0.12500000       0.010
  -0.28571429 -0.28571429  0.12500000       0.005
  -0.14285714 -0.28571429  0.12500000       0.010
  -0.14285714 -0.14285714  0.12500000       0.005
   0.00000000  0.00000000  0.25000000       0.005
   0.14285714 -0.00000000  0.25000000       0.010
   0.28571429 -0.00000000  0.25000000       0.010
   0.42857143 -0.00000000  0.25000000       0.010
  -0.42857143 -0.00000000  0.25000000       0.010
  -0.28571429 -0.00000000  0.25000000       0.010
  -0.14285714 -0.00000000  0.25000000       0.010
   0.14285714  0.14285714  0.25000000       0.005
   0.28571429  0.14285714  0.25000000       0.010
   0.42857143  0.14285714  0.25000000       0.010
  -0.42857143  0.14285714  0.25000000       0.010
  -0.28571429  0.14285714  0.25000000       0.010
  -0.14285714  0.14285714  0.25000000       0.010
   0.28571429  0.28571429  0.25000000       0.005
   0.42857143  0.28571429  0.25000000       0.010
  -0.42857143  0.28571429  0.25000000       0.010
[...]
   0.14285714 -0.00000000  0.50000000       0.010
   0.28571429 -0.00000000  0.50000000       0.010
   0.42857143 -0.00000000  0.50000000       0.010
   0.14285714  0.14285714  0.50000000       0.005
   0.28571429  0.14285714  0.50000000       0.010
   0.42857143  0.14285714  0.50000000       0.010
  -0.42857143  0.14285714  0.50000000       0.010
  -0.28571429  0.14285714  0.50000000       0.010
  -0.14285714  0.14285714  0.50000000       0.005
   0.28571429  0.28571429  0.50000000       0.005
   0.42857143  0.28571429  0.50000000       0.010
  -0.42857143  0.28571429  0.50000000       0.010
  -0.28571429  0.28571429  0.50000000       0.005
   0.42857143  0.42857143  0.50000000       0.005
  -0.42857143  0.42857143  0.50000000       0.005

 position of ions in fractional coordinates (direct lattice)
   0.75000000  0.25000000  0.50000000
   0.25000000  0.75000000  0.50000000
   0.25000000  0.25000000  0.00000000
   0.00000000  0.50000000  0.50000000
   0.75000000  0.75000000  0.00000000
   0.50000000  0.00000000  0.50000000
   0.50000000  0.50000000  0.00000000
   0.00000000  0.00000000  0.00000000

 position of ions in cartesian coordinates  (Angst):
   3.48835091  1.23308650 -0.12023055
   0.06762759  3.69925950 -0.12023055
   0.88899462  1.23308650 -1.58142778
  -0.82136703  2.46617300  1.46119722
   2.66698387  3.69925950 -4.74428333
   2.59935628  0.00000000  1.46119722
   1.77798925  2.46617300 -3.16285555
   0.00000000  0.00000000  0.00000000

 k-point   1 :   0.0000 0.0000 0.0000  plane waves:    5197
 k-point   2 :   0.1429-0.0000 0.0000  plane waves:    5192
 k-point   3 :   0.2857-0.0000 0.0000  plane waves:    5200
 k-point   4 :   0.4286 0.0000 0.0000  plane waves:    5211
 k-point   5 :   0.1429 0.1429 0.0000  plane waves:    5187
 k-point   6 :   0.2857 0.1429 0.0000  plane waves:    5192
 k-point   7 :   0.4286 0.1429 0.0000  plane waves:    5217
 k-point   8 :  -0.4286 0.1429 0.0000  plane waves:    5210
 k-point   9 :  -0.2857 0.1429 0.0000  plane waves:    5194
 k-point  10 :  -0.1429 0.1429 0.0000  plane waves:    5185
 k-point  11 :   0.2857 0.2857 0.0000  plane waves:    5214
 k-point  12 :   0.4286 0.2857 0.0000  plane waves:    5208
 k-point  13 :  -0.4286 0.2857 0.0000  plane waves:    5217
 k-point  14 :  -0.2857 0.2857 0.0000  plane waves:    5207
 k-point  15 :   0.4286 0.4286 0.0000  plane waves:    5215
 k-point  16 :  -0.4286 0.4286 0.0000  plane waves:    5228
 k-point  17 :   0.0000 0.0000 0.1250  plane waves:    5189
 k-point  18 :   0.1429-0.0000 0.1250  plane waves:    5190
 k-point  19 :   0.2857 0.0000 0.1250  plane waves:    5211
 k-point  20 :   0.4286 0.0000 0.1250  plane waves:    5209
 k-point  21 :  -0.4286 0.0000 0.1250  plane waves:    5199
 k-point  22 :  -0.2857 0.0000 0.1250  plane waves:    5188
 k-point  23 :  -0.1429 0.0000 0.1250  plane waves:    5190
 k-point  24 :   0.1429 0.1429 0.1250  plane waves:    5210
 k-point  25 :   0.2857 0.1429 0.1250  plane waves:    5215
 k-point  26 :   0.4286 0.1429 0.1250  plane waves:    5206
 k-point  27 :  -0.4286 0.1429 0.1250  plane waves:    5215
 k-point  28 :  -0.2857 0.1429 0.1250  plane waves:    5194
 k-point  29 :  -0.1429 0.1429 0.1250  plane waves:    5198
 k-point  30 :   0.2857 0.2857 0.1250  plane waves:    5204
 k-point  31 :   0.4286 0.2857 0.1250  plane waves:    5214
 k-point  32 :  -0.4286 0.2857 0.1250  plane waves:    5214
 k-point  33 :  -0.2857 0.2857 0.1250  plane waves:    5219
 k-point  34 :  -0.1429 0.2857 0.1250  plane waves:    5207
 k-point  35 :   0.4286 0.4286 0.1250  plane waves:    5214
 k-point  36 :  -0.4286 0.4286 0.1250  plane waves:    5212
 k-point  37 :  -0.2857 0.4286 0.1250  plane waves:    5213
 k-point  38 :  -0.1429 0.4286 0.1250  plane waves:    5200
 k-point  39 :  -0.4286-0.4286 0.1250  plane waves:    5212
 k-point  40 :  -0.2857-0.4286 0.1250  plane waves:    5212
 k-point  41 :  -0.1429-0.4286 0.1250  plane waves:    5196
 k-point  42 :  -0.2857-0.2857 0.1250  plane waves:    5204
 k-point  43 :  -0.1429-0.2857 0.1250  plane waves:    5196
 k-point  44 :  -0.1429-0.1429 0.1250  plane waves:    5175
 k-point  45 :   0.0000 0.0000 0.2500  plane waves:    5219
 k-point  46 :   0.1429-0.0000 0.2500  plane waves:    5210
 k-point  47 :   0.2857-0.0000 0.2500  plane waves:    5214
 k-point  48 :   0.4286-0.0000 0.2500  plane waves:    5214
 k-point  49 :  -0.4286-0.0000 0.2500  plane waves:    5198
 k-point  50 :  -0.2857-0.0000 0.2500  plane waves:    5194
 k-point  51 :  -0.1429-0.0000 0.2500  plane waves:    5191
 k-point  52 :   0.1429 0.1429 0.2500  plane waves:    5201
 k-point  53 :   0.2857 0.1429 0.2500  plane waves:    5198
 k-point  54 :   0.4286 0.1429 0.2500  plane waves:    5211
 k-point  55 :  -0.4286 0.1429 0.2500  plane waves:    5212
 k-point  56 :  -0.2857 0.1429 0.2500  plane waves:    5204
 k-point  57 :  -0.1429 0.1429 0.2500  plane waves:    5215
 k-point  58 :   0.2857 0.2857 0.2500  plane waves:    5196
 k-point  59 :   0.4286 0.2857 0.2500  plane waves:    5205
 k-point  60 :  -0.4286 0.2857 0.2500  plane waves:    5222
[...]
 k-point 102 :   0.1429-0.0000 0.5000  plane waves:    5214
 k-point 103 :   0.2857-0.0000 0.5000  plane waves:    5209
 k-point 104 :   0.4286-0.0000 0.5000  plane waves:    5214
 k-point 105 :   0.1429 0.1429 0.5000  plane waves:    5206
 k-point 106 :   0.2857 0.1429 0.5000  plane waves:    5211
 k-point 107 :   0.4286 0.1429 0.5000  plane waves:    5205
 k-point 108 :  -0.4286 0.1429 0.5000  plane waves:    5203
 k-point 109 :  -0.2857 0.1429 0.5000  plane waves:    5213
 k-point 110 :  -0.1429 0.1429 0.5000  plane waves:    5204
 k-point 111 :   0.2857 0.2857 0.5000  plane waves:    5205
 k-point 112 :   0.4286 0.2857 0.5000  plane waves:    5209
 k-point 113 :  -0.4286 0.2857 0.5000  plane waves:    5212
 k-point 114 :  -0.2857 0.2857 0.5000  plane waves:    5216
 k-point 115 :   0.4286 0.4286 0.5000  plane waves:    5213
 k-point 116 :  -0.4286 0.4286 0.5000  plane waves:    5192

 maximum and minimum number of plane-waves per node :      2642     2558

 maximum number of plane-waves:      5228
 maximum index in each direction:
   IXMAX=   12   IYMAX=   12   IZMAX=   12
   IXMIN=  -12   IYMIN=  -12   IZMIN=  -12

 parallel 3D FFT for wavefunctions:
    minimum data exchange during FFTs selected (reduces bandwidth)
 parallel 3D FFT for charge:
    minimum data exchange during FFTs selected (reduces bandwidth)

 Broyden mixing: mesh for mixing (old mesh)
   NGX = 25   NGY = 25   NGZ = 25
  (NGX  =100   NGY  =100   NGZ  =100)
  gives a total of  15625 points

 initial charge density was supplied:
 charge density of overlapping atoms calculated
 number of electron      70.0000000 magnetization
 keeping initial charge density in first step

 Maximum index for augmentation-charges        24108 (set IRDMAX)

 First call to EWALD:  gamma=   0.329
 Maximum number of real-space cells 3x 3x 3
 Maximum number of reciprocal cells 3x 3x 3

--------------------------------------- Iteration      1(   1)  ---------------------------------------

 eigenvalue-minimisations  : 10608
 total energy-change (2. order) : 0.6350391E+03  (-0.4570014E+04)
 number of electron      70.0000000 magnetization
 augmentation part       70.0000000 magnetization

 Free energy of the ion-electron system (eV)
  alpha Z        PSCENC =       264.33432663
  Ewald energy   TEWEN  =     -5586.47944874
  -Hartree energ DENC   =     -1952.38147969
  -exchange      EXHF   =         0.00000000
  -V(xc)+E(xc)   XCENC  =       305.82948827
  PAW double counting   =      6194.65714934    -6160.44322926
  entropy T*S    EENTRO =        -0.00060591
  eigenvalues    EBANDS =      -228.07948050
  atomic energy  EATOM  =      7797.60240368
  free energy    TOTEN  =       635.03912381 eV

  energy without entropy =      635.03972972  energy(sigma->0) =      635.03942677

[...]

 eigenvalue-minimisations  : 10782
 total energy-change (2. order) :-0.7536153E+03  (-0.7365410E+03)
 number of electron      70.0000000 magnetization
 augmentation part       70.0000000 magnetization

[...]

 eigenvalue-minimisations  :     0
 total energy-change (2. order) : 0.1229637E-08  (-0.2378256E-08)
 number of electron      70.0000001 magnetization
 augmentation part        9.3379148 magnetization

[...]

 eigenvalue-minimisations  :     0
 total energy-change (2. order) :-0.5129550E-08  ( 0.5642713E-09)
 number of electron      70.0000001 magnetization
 augmentation part        9.3379147 magnetization

[...]

--------------------------------------- Iteration      1(  58)  ---------------------------------------

 eigenvalue-minimisations  :     0
 total energy-change (2. order) :-0.1282388E-09  (-0.4385763E-09)
 number of electron      70.0000001 magnetization
 augmentation part        9.3379138 magnetization

 Free energy of the ion-electron system (eV)
  alpha Z        PSCENC =       264.33432663
  Ewald energy   TEWEN  =     -5586.47944874
  -Hartree energ DENC   =     -1859.06341503
  -exchange      EXHF   =         0.00000000
  -V(xc)+E(xc)   XCENC  =       311.18480712
  PAW double counting   =      7740.41752868    -7713.93490641
  entropy T*S    EENTRO =        -0.00342774
  eigenvalues    EBANDS =     -1077.97530785
  atomic energy  EATOM  =      7797.60240368
  free energy    TOTEN  =      -123.91743967 eV

  energy without entropy =     -123.91401193  energy(sigma->0) =     -123.91572580

  average scaling for gradient   0.9889

 average (electrostatic) potential at core
  the test charge radii are     0.7672  1.0818  0.9892
  (the norm of the test charge is              1.0000)
       1 -28.1447       2 -28.1447       3 -80.8902       4 -81.0392       5 -80.8902
       6 -81.0392       7 -85.9378       8 -85.9378

 E-fermi :   6.3081     XC(G=0): -11.2145     alpha+bet :-12.5063

 Fermi energy:         6.3080972798

 k-point     1 :       0.0000    0.0000    0.0000
  band No.  band energies     occupation
      1     -56.9899      2.00000
      2     -56.9891      2.00000
      3     -56.9256      2.00000
      4     -56.9243      2.00000
      5     -30.4265      2.00000
      6     -30.4142      2.00000
      7     -30.3477      2.00000
      8     -30.3476      2.00000
      9     -30.3339      2.00000
     10     -30.3339      2.00000
     11     -30.3338      2.00000
     12     -30.3227      2.00000
     13     -30.3221      2.00000
     14     -30.3220      2.00000
     15     -30.2945      2.00000
     16     -30.2944      2.00000
     17      -3.6421      2.00000
     18      -1.1622      2.00000
     19      -0.7353      2.00000
     20       0.3797      2.00000
     21       1.9141      2.00000
     22       2.3744      2.00000
     23       2.3745      2.00000
     24       2.5796      2.00000
     25       3.1255      2.00000
     26       3.1255      2.00000
     27       4.0987      2.00000
     28       4.6074      2.00000
     29       4.6074      2.00000
     30       4.7517      2.00000
     31       5.0113      2.00000
     32       5.2445      2.00000
     33       5.2446      2.00000
     34       5.4108      2.00000
     35       6.4237      0.00000
     36       6.6592      0.00000
     37       6.6840      0.00000
     38       6.7237      0.00000
     39       6.7238      0.00000
     40       6.8456      0.00000
     41       7.0570      0.00000
     42       7.9242      0.00000

[...]

 k-point   116 :      -0.4286    0.4286    0.5000
  band No.  band energies     occupation
      1     -56.9896      2.00000
      2     -56.9890      2.00000
      3     -56.9255      2.00000
      4     -56.9247      2.00000
      5     -30.4288      2.00000
      6     -30.4018      2.00000
      7     -30.3616      2.00000
      8     -30.3615      2.00000
      9     -30.3381      2.00000
     10     -30.3326      2.00000
     11     -30.3260      2.00000
     12     -30.3258      2.00000
     13     -30.3150      2.00000
     14     -30.3126      2.00000
     15     -30.2950      2.00000
     16     -30.2950      2.00000
     17      -2.6162      2.00000
     18      -1.7036      2.00000
     19      -1.2496      2.00000
     20      -0.5882      2.00000
     21       2.0076      2.00000
     22       2.5558      2.00000
     23       2.9505      2.00000
     24       2.9717      2.00000
     25       3.3779      2.00000
     26       3.4123      2.00000
     27       3.9499      2.00000
     28       3.9596      2.00000
     29       4.0517      2.00000
     30       4.0940      2.00000
     31       5.0841      2.00000
     32       5.2279      2.00000
     33       5.4226      2.00000
     34       5.4539      2.00000
     35       5.7366      2.00000
     36       6.1478      2.00000
     37       6.6077      0.00000
     38       6.6231      0.00000
     39       6.8159      0.00000
     40       6.9229      0.00000
     41       7.4369      0.00000
     42       7.9722      0.00000

 soft charge-density along one line, spin component           1
         0         1         2         3         4         5         6         7         8         9
 total charge-density along one line

------------------------ aborting loop because EDIFF is reached ----------------------------------------

  FREE ENERGIE OF THE ION-ELECTRON SYSTEM (eV)
  free  energy   TOTEN  =      -123.91743967 eV

  energy  without entropy=     -123.91401193  energy(sigma->0) =     -123.91572580

 writing wavefunctions