 vasp.6.2.0 18Jan21 (build Jan 05 2022 15:41:44) complex

 executed on             LinuxIFC date 2025.05.07  20:37:06

 INCAR:
   SYSTEM = routine with relax: pwdword
   ICHARG = 2
   NPAR = 6
   KPAR = 2
   NCORE = 2
   ADDGRID = T
   PREC = Acc
   ENCUT = 600
   METAGGA = R2SCAN
   LASPH = .TRUE.
   LMIXTAU = .FALSE.
   ALGO = A
   EDIFF = 1E-9
   NELM = 100
   NELMIN = 6
   IALGO = 38
   LREAL = F
   NSW = 0
   ISIF = -1
   ISMEAR = 0
   SIGMA = 0.02
   SYMPREC = 1E-4

 POTCAR:    PAW_PBE B 06Sep2000
 POTCAR:    PAW_PBE Mo_sv 02Feb2006
 POTCAR:    PAW_PBE Si 05Jan2001
|           W    W    AA    RRRRR   N    N  II  N    N   GGGG   !!!           |
|           W    W   A  A   R    R  NN   N  II  NN   N  G    G  !!!           |
|           W    W  A    A  R    R  N N  N  II  N N  N  G       !!!           |
|           W WW W  AAAAAA  RRRRR   N  N N  II  N  N N  G  GGG   !            |
|           WW  WW  A    A  R   R   N   NN  II  N   NN  G    G                |
|           W    W  A    A  R    R  N    N  II  N    N   GGGG   !!!           |
|     For optimal performance we recommend to set                             |
|       NCORE = 2 up to number-of-cores-per-socket                            |
|     This setting can greatly improve the performance of VASP for DFT.       |
|     The default, NCORE=1 might be grossly inefficient on modern             |
|     multi-core architectures or massively parallel machines. Do your        |
|     Unfortunately you need to use the default for GW and RPA                |
|     calculations (for HF NCORE is supported but not extensively tested      |
|     yet).                                                                   |

 POTCAR:    PAW_PBE B 06Sep2000
   VRHFIN =B: s2p1

   TITEL  = PAW_PBE B 06Sep2000
   POMASS =   10.811; ZVAL   =    3.000    mass and valenz
   ENMAX  =  318.614; ENMIN  =  238.960 eV

 POTCAR:    PAW_PBE Mo_sv 02Feb2006
   VRHFIN =Mo: 4p5s4d

   TITEL  = PAW_PBE Mo_sv 02Feb2006
   POMASS =   95.940; ZVAL   =   14.000    mass and valenz
   ENMAX  =  242.676; ENMIN  =  182.007 eV

 POTCAR:    PAW_PBE Si 05Jan2001
   VRHFIN =Si: s2p2

   TITEL  = PAW_PBE Si 05Jan2001
   POMASS =   28.085; ZVAL   =    4.000    mass and valenz
   ENMAX  =  245.345; ENMIN  =  184.009 eV

  PAW_PBE B 06Sep2000                   :
  PAW_PBE Mo_sv 02Feb2006               :
  PAW_PBE Si 05Jan2001                  :

 POSCAR: EA199
  positions in direct lattice

 METAGGA = R2SCA    LMAXTAU =  6    LMIXTAU =  F

 ion  position               nearest neighbor table
   1  0.134  0.634  0.768-   7 2.25   8 2.25
   2  0.634  0.866  0.500-   6 2.25   5 2.25
   3  0.366  0.134  0.500-   5 2.25   6 2.25
   4  0.866  0.366  0.232-   7 2.25   8 2.25
   5  0.625  0.125  0.751-   3 2.25   2 2.25  11 2.77  17 2.77  14 2.77  18 2.77   6 3.07  10 3.42
                             9 3.42
   6  0.375  0.875  0.249-   2 2.25   3 2.25  16 2.77  15 2.77  13 2.77  12 2.77   5 3.07  10 3.42
                             9 3.42
   7  0.875  0.625  0.500-   1 2.25   4 2.25  13 2.77  18 2.77  17 2.77  16 2.77   8 3.07   9 3.42
                            10 3.42
   8  0.125  0.375  0.500-   1 2.25   4 2.25  12 2.77  14 2.77  11 2.77  15 2.77   7 3.07  10 3.42
                             9 3.42
   9  0.000  0.000  0.000-  13 2.60  14 2.60  15 2.60  17 2.60  11 2.60  16 2.60  12 2.60  18 2.60
                             8 3.42   7 3.42   5 3.42   6 3.42
  10  0.500  0.500  0.000-  11 2.60  16 2.60  12 2.60  18 2.60  15 2.60  13 2.60  17 2.60  14 2.60
                             7 3.42   8 3.42   5 3.42   6 3.42
  11  0.058  0.250  0.808-  15 2.35  18 2.35  10 2.60   9 2.60   5 2.77   8 2.77
  12  0.750  0.942  0.192-  14 2.35  16 2.35  10 2.60   9 2.60   8 2.77   6 2.77
  13  0.442  0.250  0.192-  18 2.35  15 2.35   9 2.60  10 2.60   7 2.77   6 2.77
  14  0.558  0.750  0.808-  12 2.35  17 2.35   9 2.60  10 2.60   8 2.77   5 2.77
  15  0.250  0.442  0.192-  11 2.35  13 2.35   9 2.60  10 2.60   6 2.77   8 2.77
  16  0.942  0.750  0.192-  17 2.35  12 2.35  10 2.60   9 2.60   6 2.77   7 2.77
  17  0.750  0.558  0.808-  16 2.35  14 2.35   9 2.60  10 2.60   5 2.77   7 2.77
  18  0.250  0.058  0.808-  13 2.35  11 2.35  10 2.60   9 2.60   7 2.77   5 2.77

  LATTYP: Found a body centered tetragonal cell.
 ALAT       =     8.6595964486
 C/A-ratio  =     0.9238864641

  Lattice vectors:

 A1 = (   6.9792373741,   0.0000000000,  -2.1878293011)
 A2 = (  -3.7653221051,   5.8764022810,  -2.1878293011)
 A3 = (   0.0000000000,   0.0000000000,   7.3141200000)

Analysis of symmetry for initial positions (statically):
 Subroutine PRICEL returns:
 Original cell was already a primitive cell.

 Routine SETGRP: Setting up the symmetry group for a
 body centered tetragonal supercell.

 Subroutine GETGRP returns: Found 16 space group operations
 (whereof  8 operations were pure point group operations)
 out of a pool of 16 trial point group operations.

The static configuration has the point symmetry C_4h.
 The point group associated with its full space group is D_4h.

Analysis of symmetry for dynamics (positions and initial velocities):
 Subroutine PRICEL returns:
 Original cell was already a primitive cell.

 Routine SETGRP: Setting up the symmetry group for a
 body centered tetragonal supercell.

 Subroutine GETGRP returns: Found 16 space group operations
 (whereof  8 operations were pure point group operations)
 out of a pool of 16 trial point group operations.

The dynamic configuration has the point symmetry C_4h.
 The point group associated with its full space group is D_4h.

 Subroutine INISYM returns: Found 16 space group operations
 (whereof  8 operations are pure point group operations),
 and found     1 'primitive' translations

                                     Primitive cell

  volume of cell :     299.9726

  direct lattice vectors                    reciprocal lattice vectors
     6.979237374  0.000000000 -2.187829301     0.143282130  0.091808448  0.000000000
    -3.765322105  5.876402281 -2.187829301     0.000000000  0.170172148  0.000000000
     0.000000000  0.000000000  7.314120000     0.042859133  0.078364701  0.136721848

  length of vectors
     7.314120000  7.314120000  7.314120000     0.170172148  0.170172148  0.163311957

  position of ions in fractional coordinates (direct lattice)
     0.133970000  0.633970000  0.767940000
     0.633970000  0.866030000  0.500000000
     0.366030000  0.133970000  0.500000000
     0.866030000  0.366030000  0.232060000
     0.625440000  0.125440000  0.750870000
     0.374560000  0.874560000  0.249130000
     0.874560000  0.625440000  0.500000000
     0.125440000  0.374560000  0.500000000
     0.000000000  0.000000000  0.000000000
     0.500000000  0.500000000  0.000000000
     0.057850000  0.250000000  0.807850000
     0.750000000  0.942150000  0.192150000
     0.442150000  0.250000000  0.192150000
     0.557850000  0.750000000  0.807850000
     0.250000000  0.442150000  0.192150000
     0.942150000  0.750000000  0.192150000
     0.750000000  0.557850000  0.807850000
     0.250000000  0.057850000  0.807850000

  ion indices of the primitive-cell ions
   primitive index   ion index
                 1           1
                 2           2
                 3           3
                 4           4
                 5           5
                 6           6
                 7           7
                 8           8
                 9           9
                10          10
                11          11
                12          12
                13          13
                14          14
                15          15
                16          16
                17          17
                18          18

 KPOINTS: EA

Automatic generation of k-mesh.
 Grid dimensions read from file:
 generate k-points for:    6    6    6

 Generating k-lattice:

  Cartesian coordinates                     Fractional coordinates (reciprocal lattice)
     0.023880355  0.015301408  0.000000000     0.166666667  0.000000000  0.000000000
     0.000000000  0.028362025  0.000000000     0.000000000  0.166666667  0.000000000
     0.007143189  0.013060783  0.022786975     0.000000000  0.000000000  0.166666667

  Length of vectors
     0.028362025  0.028362025  0.027218659

  Shift w.r.t. Gamma in fractional coordinates (k-lattice)
     0.000000000  0.000000000  0.000000000

 Subroutine IBZKPT returns following result:

 Found     30 irreducible k-points:

 Following reciprocal coordinates:
            Coordinates               Weight
  0.000000  0.000000  0.000000      1.000000
  0.166667 -0.000000  0.000000      8.000000
  0.333333  0.000000  0.000000      8.000000
  0.500000 -0.000000  0.000000      4.000000
  0.166667  0.166667  0.000000      8.000000
  0.333333  0.166667  0.000000     16.000000
  0.500000  0.166667  0.000000     16.000000
 -0.333333  0.166667  0.000000     16.000000
 -0.166667  0.166667  0.000000      4.000000
  0.333333  0.333333  0.000000      8.000000
  0.500000  0.333333  0.000000     16.000000
 -0.333333  0.333333  0.000000      4.000000
  0.500000  0.500000  0.000000      2.000000
  0.166667  0.166667  0.166667      8.000000
  0.333333  0.166667  0.166667      8.000000
 -0.166667  0.166667  0.166667      4.000000
  0.333333  0.333333  0.166667      4.000000
 -0.333333  0.333333  0.166667      8.000000
 -0.166667  0.333333  0.166667      8.000000
  0.500000  0.500000  0.166667      4.000000
 -0.333333  0.500000  0.166667     16.000000
 -0.166667  0.500000  0.166667      8.000000
 -0.333333 -0.333333  0.166667      8.000000
 -0.166667 -0.333333  0.166667      8.000000
 -0.166667 -0.166667  0.166667      2.000000
 -0.333333  0.333333  0.333333      4.000000
  0.500000  0.500000  0.333333      4.000000
 -0.333333  0.500000  0.333333      8.000000
 -0.333333 -0.333333  0.333333      2.000000
  0.500000  0.500000  0.500000      1.000000

 Following cartesian coordinates:
            Coordinates               Weight
  0.000000  0.000000  0.000000      1.000000
  0.023880  0.015301  0.000000      8.000000
  0.047761  0.030603  0.000000      8.000000
  0.071641  0.045904  0.000000      4.000000
  0.023880  0.043663  0.000000      8.000000
  0.047761  0.058965  0.000000     16.000000
  0.071641  0.074266  0.000000     16.000000
 -0.047761 -0.002241  0.000000     16.000000
 -0.023880  0.013061  0.000000      4.000000
  0.047761  0.087327  0.000000      8.000000
  0.071641  0.102628  0.000000     16.000000
 -0.047761  0.026121  0.000000      4.000000
  0.071641  0.130990  0.000000      2.000000
  0.031024  0.056724  0.022787      8.000000
  0.054904  0.072026  0.022787      8.000000
 -0.016737  0.026121  0.022787      4.000000
  0.054904  0.100388  0.022787      4.000000
 -0.040618  0.039182  0.022787      8.000000
 -0.016737  0.054483  0.022787      8.000000
  0.078784  0.144051  0.022787      4.000000
 -0.040618  0.067544  0.022787     16.000000
 -0.016737  0.082845  0.022787      8.000000
 -0.040618 -0.074266  0.022787      8.000000
 -0.016737 -0.058965  0.022787      8.000000
 -0.016737 -0.030603  0.022787      2.000000
 -0.033474  0.052243  0.045574      4.000000
  0.085927  0.157112  0.045574      4.000000
[...]
     6.979237374  0.000000000 -2.187829301     0.143282130  0.091808448  0.000000000
    -3.765322105  5.876402281 -2.187829301     0.000000000  0.170172148  0.000000000
     0.000000000  0.000000000  7.314120000     0.042859133  0.078364701  0.136721848

  length of vectors
     7.314120000  7.314120000  7.314120000     0.170172148  0.170172148  0.163311957

 k-points in units of 2pi/SCALE and weight: EA
   0.00000000  0.00000000  0.00000000       0.005
   0.02388036  0.01530141  0.00000000       0.037
   0.04776071  0.03060282  0.00000000       0.037
   0.07164107  0.04590422  0.00000000       0.019
   0.02388036  0.04366343  0.00000000       0.037
   0.04776071  0.05896484  0.00000000       0.074
   0.07164107  0.07426625  0.00000000       0.074
  -0.04776071 -0.00224079  0.00000000       0.074
  -0.02388036  0.01306062  0.00000000       0.019
   0.04776071  0.08732687  0.00000000       0.037
   0.07164107  0.10262827  0.00000000       0.074
  -0.04776071  0.02612123  0.00000000       0.019
   0.07164107  0.13099030  0.00000000       0.009
   0.03102354  0.05672422  0.02278697       0.037
   0.05490390  0.07202562  0.02278697       0.037
  -0.01673717  0.02612140  0.02278697       0.019
   0.05490390  0.10038765  0.02278697       0.019
  -0.04061752  0.03918202  0.02278697       0.037
  -0.01673717  0.05448342  0.02278697       0.037
   0.07878425  0.14405108  0.02278697       0.019
  -0.04061752  0.06754404  0.02278697       0.074
  -0.01673717  0.08284545  0.02278697       0.037
  -0.04061752 -0.07426608  0.02278697       0.037
  -0.01673717 -0.05896467  0.02278697       0.037
  -0.01673717 -0.03060265  0.02278697       0.009
  -0.03347433  0.05224280  0.04557395       0.019
   0.08592744  0.15711187  0.04557395       0.019
  -0.03347433  0.08060483  0.04557395       0.037
  -0.03347433 -0.06120530  0.04557395       0.009
   0.09307063  0.17017265  0.06836092       0.005

 k-points in reciprocal lattice and weights: EA
   0.00000000  0.00000000  0.00000000       0.005
   0.16666667 -0.00000000  0.00000000       0.037
   0.33333333  0.00000000  0.00000000       0.037
   0.50000000 -0.00000000  0.00000000       0.019
   0.16666667  0.16666667  0.00000000       0.037
   0.33333333  0.16666667  0.00000000       0.074
   0.50000000  0.16666667  0.00000000       0.074
  -0.33333333  0.16666667  0.00000000       0.074
  -0.16666667  0.16666667  0.00000000       0.019
   0.33333333  0.33333333  0.00000000       0.037
   0.50000000  0.33333333  0.00000000       0.074
  -0.33333333  0.33333333  0.00000000       0.019
   0.50000000  0.50000000  0.00000000       0.009
   0.16666667  0.16666667  0.16666667       0.037
   0.33333333  0.16666667  0.16666667       0.037
  -0.16666667  0.16666667  0.16666667       0.019
   0.33333333  0.33333333  0.16666667       0.019
  -0.33333333  0.33333333  0.16666667       0.037
  -0.16666667  0.33333333  0.16666667       0.037
   0.50000000  0.50000000  0.16666667       0.019
  -0.33333333  0.50000000  0.16666667       0.074
  -0.16666667  0.50000000  0.16666667       0.037
  -0.33333333 -0.33333333  0.16666667       0.037
  -0.16666667 -0.33333333  0.16666667       0.037
  -0.16666667 -0.16666667  0.16666667       0.009
  -0.33333333  0.33333333  0.33333333       0.019
   0.50000000  0.50000000  0.33333333       0.019
  -0.33333333  0.50000000  0.33333333       0.037
  -0.33333333 -0.33333333  0.33333333       0.009
   0.50000000  0.50000000  0.50000000       0.005

 position of ions in fractional coordinates (direct lattice)
   0.13397000  0.63397000  0.76794000
   0.63397000  0.86603000  0.50000000
   0.36603000  0.13397000  0.50000000
   0.86603000  0.36603000  0.23206000
   0.62544000  0.12544000  0.75087000
   0.37456000  0.87456000  0.24913000
   0.87456000  0.62544000  0.50000000
   0.12544000  0.37456000  0.50000000
   0.00000000  0.00000000  0.00000000
   0.50000000  0.50000000  0.00000000
   0.05785000  0.25000000  0.80785000
   0.75000000  0.94215000  0.19215000
   0.44215000  0.25000000  0.19215000
   0.55785000  0.75000000  0.80785000
   0.25000000  0.44215000  0.19215000
   0.94215000  0.75000000  0.19215000
   0.75000000  0.55785000  0.80785000
   0.25000000  0.05785000  0.80785000

 position of ions in cartesian coordinates  (Angst):
  -1.45209282  3.72546275  3.93668368
   1.16374522  5.08914067  0.37531605
   2.05017005  0.78726161  2.56314535
   4.66600809  2.15093953 -0.99822228
   3.89277222  0.73713590  3.84915602
  -0.67885695  5.13926638 -0.91069462
   3.74877878  3.67533704  0.37531605
  -0.53486351  2.20106524  2.56314535
   0.00000000  0.00000000  0.00000000
   1.60695763  2.93820114 -2.18782930
  -0.53758164  1.46910057  5.23518859
   1.68692981  5.53645241 -2.29672719
   2.14453928  1.46910057 -0.10889789
   1.06937599  4.40730171  3.04735929
   0.07997217  2.59825127 -0.10889789
   3.75149691  4.40730171 -2.29672719
   3.13394309  3.27815101  3.04735929
   1.52698546  0.33994987  5.23518859

 k-point   1 :   0.0000 0.0000 0.0000  plane waves:   10063
 k-point   2 :   0.1667-0.0000 0.0000  plane waves:   10033
 k-point   3 :   0.3333 0.0000 0.0000  plane waves:   10015
 k-point   4 :   0.5000-0.0000 0.0000  plane waves:   10018
 k-point   5 :   0.1667 0.1667 0.0000  plane waves:   10019
 k-point   6 :   0.3333 0.1667 0.0000  plane waves:   10016
 k-point   7 :   0.5000 0.1667 0.0000  plane waves:   10027
 k-point   8 :  -0.3333 0.1667 0.0000  plane waves:   10008
 k-point   9 :  -0.1667 0.1667 0.0000  plane waves:   10017
 k-point  10 :   0.3333 0.3333 0.0000  plane waves:   10010
 k-point  11 :   0.5000 0.3333 0.0000  plane waves:   10005
 k-point  12 :  -0.3333 0.3333 0.0000  plane waves:   10010
 k-point  13 :   0.5000 0.5000 0.0000  plane waves:    9976
 k-point  14 :   0.1667 0.1667 0.1667  plane waves:   10012
 k-point  15 :   0.3333 0.1667 0.1667  plane waves:   10022
 k-point  16 :  -0.1667 0.1667 0.1667  plane waves:   10003
 k-point  17 :   0.3333 0.3333 0.1667  plane waves:   10018
 k-point  18 :  -0.3333 0.3333 0.1667  plane waves:    9999
 k-point  19 :  -0.1667 0.3333 0.1667  plane waves:   10003
 k-point  20 :   0.5000 0.5000 0.1667  plane waves:    9982
 k-point  21 :  -0.3333 0.5000 0.1667  plane waves:   10004
 k-point  22 :  -0.1667 0.5000 0.1667  plane waves:   10005
 k-point  23 :  -0.3333-0.3333 0.1667  plane waves:    9999
 k-point  24 :  -0.1667-0.3333 0.1667  plane waves:   10015
 k-point  25 :  -0.1667-0.1667 0.1667  plane waves:   10060
 k-point  26 :  -0.3333 0.3333 0.3333  plane waves:    9993
 k-point  27 :   0.5000 0.5000 0.3333  plane waves:   10000
 k-point  28 :  -0.3333 0.5000 0.3333  plane waves:   10000
 k-point  29 :  -0.3333-0.3333 0.3333  plane waves:   10012
 k-point  30 :   0.5000 0.5000 0.5000  plane waves:    9956

 maximum and minimum number of plane-waves per node :      5049     4971

 maximum number of plane-waves:     10063
 maximum index in each direction:
   IXMAX=   14   IYMAX=   14   IZMAX=   14
   IXMIN=  -15   IYMIN=  -15   IZMIN=  -15

 parallel 3D FFT for wavefunctions:
    minimum data exchange during FFTs selected (reduces bandwidth)
 parallel 3D FFT for charge:
    minimum data exchange during FFTs selected (reduces bandwidth)

 Broyden mixing: mesh for mixing (old mesh)
   NGX = 29   NGY = 29   NGZ = 29
  (NGX  =120   NGY  =120   NGZ  =120)
  gives a total of  24389 points

 initial charge density was supplied:
 charge density of overlapping atoms calculated
 number of electron     128.0000000 magnetization
 keeping initial charge density in first step

 Maximum index for augmentation-charges        20517 (set IRDMAX)

 First call to EWALD:  gamma=   0.265
 Maximum number of real-space cells 3x 3x 3
 Maximum number of reciprocal cells 3x 3x 3

--------------------------------------- Iteration      1(   1)  ---------------------------------------

 eigenvalue-minimisations  :  5052
 total energy-change (2. order) : 0.1011535E+04  (-0.7867750E+04)
 number of electron     128.0000000 magnetization
 augmentation part      128.0000000 magnetization

 Free energy of the ion-electron system (eV)
  alpha Z        PSCENC =       404.88070238
  Ewald energy   TEWEN  =     -8929.28514364
  -Hartree energ DENC   =     -3248.61902315
  -exchange      EXHF   =         0.00000000
  -V(xc)+E(xc)   XCENC  =       447.18403190
  PAW double counting   =      9750.04252379    -9644.57956626
  entropy T*S    EENTRO =        -0.00138550
  eigenvalues    EBANDS =       -50.99346518
  atomic energy  EATOM  =     12282.90600403
  free energy    TOTEN  =      1011.53467836 eV

  energy without entropy =     1011.53606387  energy(sigma->0) =     1011.53537112

[...]

 eigenvalue-minimisations  :  5304
 total energy-change (2. order) :-0.1234661E+04  (-0.1207250E+04)
 number of electron     128.0000000 magnetization
 augmentation part      128.0000000 magnetization

[...]

 eigenvalue-minimisations  :     0
 total energy-change (2. order) : 0.1909939E-08  (-0.2554537E-08)
 number of electron     127.9999995 magnetization
 augmentation part       12.8309625 magnetization

[...]

 eigenvalue-minimisations  :     0
 total energy-change (2. order) :-0.2584784E-08  (-0.2514872E-08)
 number of electron     127.9999995 magnetization
 augmentation part       12.8309610 magnetization

[...]

 eigenvalue-minimisations  :     0
 total energy-change (2. order) :-0.2706656E-08  ( 0.2181930E-09)
 number of electron     127.9999995 magnetization
 augmentation part       12.8309636 magnetization

[...]

--------------------------------------- Iteration      1(  43)  ---------------------------------------

 eigenvalue-minimisations  :     0
 total energy-change (2. order) :-0.7985363E-09  ( 0.3726460E-09)
 number of electron     127.9999995 magnetization
 augmentation part       12.8309632 magnetization

 Free energy of the ion-electron system (eV)
  alpha Z        PSCENC =       404.88070238
  Ewald energy   TEWEN  =     -8929.28514364
  -Hartree energ DENC   =     -3116.83307157
  -exchange      EXHF   =         0.00000000
  -V(xc)+E(xc)   XCENC  =       457.45973888
  PAW double counting   =     15049.68014095   -14959.80919627
  entropy T*S    EENTRO =        -0.00400477
  eigenvalues    EBANDS =     -1429.89254992
  atomic energy  EATOM  =     12282.90600403
  free energy    TOTEN  =      -240.89737995 eV

  energy without entropy =     -240.89337518  energy(sigma->0) =     -240.89537757

  average scaling for gradient   1.0815

 average (electrostatic) potential at core
  the test charge radii are     0.7672  1.0818  0.9892
  (the norm of the test charge is              1.0000)
       1 -26.9859       2 -26.9890       3 -26.9890       4 -26.9859       5 -79.3411
       6 -79.3411       7 -79.3406       8 -79.3406       9 -79.2938      10 -79.2938
      11 -85.0557      12 -85.0547      13 -85.0547      14 -85.0547      15 -85.0557
      16 -85.0557      17 -85.0557      18 -85.0547

 E-fermi :   7.4684     XC(G=0): -11.6351     alpha+bet :-14.1259

 Fermi energy:         7.4683872290

 k-point     1 :       0.0000    0.0000    0.0000
  band No.  band energies     occupation
      1     -55.3421      2.00000
      2     -55.3398      2.00000
      3     -55.3174      2.00000
      4     -55.3164      2.00000
      5     -55.3018      2.00000
      6     -55.3013      2.00000
      7     -28.9355      2.00000
      8     -28.8950      2.00000
      9     -28.8015      2.00000
     10     -28.8007      2.00000
     11     -28.7426      2.00000
     12     -28.7426      2.00000
     13     -28.7228      2.00000
     14     -28.7228      2.00000
     15     -28.7169      2.00000
     16     -28.7104      2.00000
     17     -28.6976      2.00000
     18     -28.6972      2.00000
     19     -28.6105      2.00000
     20     -28.6100      2.00000
     21     -28.5915      2.00000
     22     -28.5910      2.00000
     23     -28.5893      2.00000
     24     -28.5887      2.00000
     25      -5.1093      2.00000
     26      -3.4673      2.00000
     27      -1.5428      2.00000
     28      -1.5423      2.00000
     29      -1.1623      2.00000
     30      -1.1623      2.00000
     31      -0.5697      2.00000
     32       0.0523      2.00000
     33       0.6215      2.00000
     34       0.6233      2.00000
     35       1.5382      2.00000
     36       1.8954      2.00000
     37       2.0343      2.00000
     38       2.1227      2.00000
     39       3.5415      2.00000
     40       3.5416      2.00000
     41       3.6184      2.00000
     42       3.6186      2.00000
     43       3.6799      2.00000
     44       4.1575      2.00000
     45       4.2802      2.00000
     46       4.5732      2.00000
     47       4.8064      2.00000
     48       4.8067      2.00000
     49       4.9701      2.00000
     50       5.0785      2.00000
     51       5.0811      2.00000
     52       5.6417      2.00000
     53       5.6430      2.00000
     54       6.0083      2.00000
     55       6.0569      2.00000
     56       6.0572      2.00000
     57       6.1156      2.00000
     58       6.1587      2.00000
     59       6.5198      2.00000
     60       6.5202      2.00000
[...]
     64       7.0652      2.00000
     65       7.2438      2.00000
     66       7.5052      0.00931
     67       8.0636      0.00000
     68       8.3695      0.00000
     69       8.3695      0.00000
     70       8.4146      0.00000
     71       8.6072      0.00000
     72       8.6076      0.00000
     73       9.0775      0.00000
     74       9.6701      0.00000
     75       9.6764      0.00000
     76      10.0167      0.00000
     77      10.0909      0.00000
     78      10.3292      0.00000

[...]

 k-point    30 :       0.5000    0.5000    0.5000
  band No.  band energies     occupation
      1     -55.3410      2.00000
      2     -55.3410      2.00000
      3     -55.3176      2.00000
      4     -55.3162      2.00000
      5     -55.3018      2.00000
      6     -55.3013      2.00000
      7     -28.9361      2.00000
      8     -28.8945      2.00000
      9     -28.8017      2.00000
     10     -28.7999      2.00000
     11     -28.7412      2.00000
     12     -28.7411      2.00000
     13     -28.7242      2.00000
     14     -28.7242      2.00000
     15     -28.7171      2.00000
     16     -28.7112      2.00000
     17     -28.6970      2.00000
     18     -28.6966      2.00000
     19     -28.6109      2.00000
     20     -28.6103      2.00000
     21     -28.5913      2.00000
     22     -28.5909      2.00000
     23     -28.5907      2.00000
     24     -28.5876      2.00000
     25      -4.6259      2.00000
     26      -3.7103      2.00000
     27      -1.9968      2.00000
     28      -1.9958      2.00000
     29      -1.1948      2.00000
     30      -1.1885      2.00000
     31      -1.1882      2.00000
     32      -0.7932      2.00000
     33       1.6270      2.00000
     34       1.6289      2.00000
     35       2.6258      2.00000
     36       2.6591      2.00000
     37       2.7351      2.00000
     38       2.9738      2.00000
     39       3.1472      2.00000
     40       3.2954      2.00000
     41       3.4846      2.00000
     42       3.4851      2.00000
     43       3.5175      2.00000
     44       3.5903      2.00000
     45       3.5910      2.00000
     46       3.9473      2.00000
     47       4.4240      2.00000
     48       4.5945      2.00000
     49       4.6276      2.00000
     50       4.6281      2.00000
     51       5.4485      2.00000
     52       6.0078      2.00000
     53       6.1017      2.00000
     54       6.1021      2.00000
     55       6.1308      2.00000
     56       6.1796      2.00000
     57       6.1798      2.00000
     58       6.2921      2.00000
     59       6.6517      2.00000
     60       6.6529      2.00000
[...]
     64       7.3448      2.00000
     65       7.6218      0.00000
     66       7.7047      0.00000
     67       7.7048      0.00000
     68       8.0947      0.00000
     69       8.2215      0.00000
     70       8.2215      0.00000
     71       8.6115      0.00000
     72       8.6116      0.00000
     73       8.6564      0.00000
     74       8.8024      0.00000
     75       8.9744      0.00000
     76       8.9951      0.00000
     77       9.3858      0.00000
     78       9.9300      0.00000

 soft charge-density along one line, spin component           1
         0         1         2         3         4         5         6         7         8         9
 total charge-density along one line

------------------------ aborting loop because EDIFF is reached ----------------------------------------

  FREE ENERGIE OF THE ION-ELECTRON SYSTEM (eV)
  free  energy   TOTEN  =      -240.89737995 eV

  energy  without entropy=     -240.89337518  energy(sigma->0) =     -240.89537757

 writing wavefunctions