 vasp.6.2.0 18Jan21 (build Jan 05 2022 15:41:44) complex

 executed on             LinuxIFC date 2025.05.07  21:17:58

 INCAR:
   SYSTEM = routine with relax: pwdword
   ICHARG = 2
   NPAR = 6
   KPAR = 2
   NCORE = 2
   ADDGRID = T
   PREC = Acc
   ENCUT = 600
   METAGGA = R2SCAN
   LASPH = .TRUE.
   LMIXTAU = .FALSE.
   ALGO = A
   EDIFF = 1E-9
   NELM = 100
   NELMIN = 6
   IALGO = 38
   LREAL = F
   NSW = 0
   ISIF = -1
   ISMEAR = 0
   SIGMA = 0.02

 POTCAR:    PAW_PBE B 06Sep2000
 POTCAR:    PAW_PBE Mo_sv 02Feb2006
|           W    W    AA    RRRRR   N    N  II  N    N   GGGG   !!!           |
|           W    W   A  A   R    R  NN   N  II  NN   N  G    G  !!!           |
|           W    W  A    A  R    R  N N  N  II  N N  N  G       !!!           |
|           W WW W  AAAAAA  RRRRR   N  N N  II  N  N N  G  GGG   !            |
|           WW  WW  A    A  R   R   N   NN  II  N   NN  G    G                |
|           W    W  A    A  R    R  N    N  II  N    N   GGGG   !!!           |
|     For optimal performance we recommend to set                             |
|       NCORE = 2 up to number-of-cores-per-socket                            |
|     This setting can greatly improve the performance of VASP for DFT.       |
|     The default, NCORE=1 might be grossly inefficient on modern             |
|     multi-core architectures or massively parallel machines. Do your        |
|     Unfortunately you need to use the default for GW and RPA                |
|     calculations (for HF NCORE is supported but not extensively tested      |
|     yet).                                                                   |

 POTCAR:    PAW_PBE B 06Sep2000
   VRHFIN =B: s2p1

   TITEL  = PAW_PBE B 06Sep2000
   POMASS =   10.811; ZVAL   =    3.000    mass and valenz
   ENMAX  =  318.614; ENMIN  =  238.960 eV

 POTCAR:    PAW_PBE Mo_sv 02Feb2006
   VRHFIN =Mo: 4p5s4d

   TITEL  = PAW_PBE Mo_sv 02Feb2006
   POMASS =   95.940; ZVAL   =   14.000    mass and valenz
   ENMAX  =  242.676; ENMIN  =  182.007 eV

  PAW_PBE B 06Sep2000                   :
  PAW_PBE Mo_sv 02Feb2006               :

 POSCAR: EA244
  positions in direct lattice

 METAGGA = R2SCA    LMAXTAU =  6    LMIXTAU =  F

 ion  position               nearest neighbor table
   1  0.999  0.334  0.118-  24 1.74  22 1.74  14 1.76  26 2.26  28 2.33  25 2.36
   2  0.665  0.664  0.372-  13 1.72  11 1.75   9 1.76  25 2.33  27 2.34  28 2.34  30 2.35
   3  0.666  0.665  0.882-  10 1.74  12 1.74   8 1.76  26 2.26  29 2.33  31 2.36
   4  0.335  0.001  0.882-   8 1.74  10 1.74  12 1.76  26 2.26  29 2.33  31 2.36
   5  0.336  0.001  0.372-   9 1.72  13 1.75  11 1.76  25 2.33  27 2.34  28 2.34  30 2.35
   6  0.999  0.335  0.372-  11 1.72   9 1.75  13 1.76  25 2.33  27 2.34  28 2.34  30 2.35
   7  0.999  0.334  0.882-  12 1.74   8 1.74  10 1.76  26 2.26  29 2.33  31 2.36
   8  0.666  0.001  0.882-   4 1.74   7 1.74   3 1.76  26 2.26  29 2.33  31 2.36
   9  0.665  0.001  0.372-   5 1.72   6 1.75   2 1.76  25 2.33  27 2.34  28 2.34  30 2.35
  10  0.335  0.334  0.882-   3 1.74   4 1.74   7 1.76  26 2.26  29 2.33  31 2.36
  11  0.999  0.664  0.372-   6 1.72   2 1.75   5 1.76  25 2.33  27 2.34  28 2.34  30 2.35
  12  0.999  0.665  0.882-   7 1.74   3 1.74   4 1.76  26 2.26  29 2.33  31 2.36
  13  0.336  0.335  0.372-   2 1.72   5 1.75   6 1.76  25 2.33  27 2.34  28 2.34  30 2.35
  14  0.335  0.334  0.118-  16 1.74  18 1.74   1 1.76  26 2.26  28 2.33  25 2.36
  15  0.999  0.335  0.628-  21 1.72  23 1.75  17 1.76  31 2.33  27 2.34  29 2.34  30 2.35
  16  0.666  0.665  0.118-  14 1.74  24 1.74  22 1.76  26 2.26  28 2.33  25 2.36
  17  0.336  0.335  0.628-  20 1.72  19 1.75  15 1.76  31 2.33  27 2.34  29 2.34  30 2.35
  18  0.335  0.001  0.118-  22 1.74  14 1.74  24 1.76  26 2.26  28 2.33  25 2.36
  19  0.336  0.001  0.628-  23 1.72  17 1.75  21 1.76  31 2.33  27 2.34  29 2.34  30 2.35
  20  0.665  0.664  0.628-  17 1.72  21 1.75  23 1.76  31 2.33  27 2.34  29 2.34  30 2.35
  21  0.999  0.664  0.628-  15 1.72  20 1.75  19 1.76  31 2.33  27 2.34  29 2.34  30 2.35
  22  0.666  0.001  0.118-  18 1.74   1 1.74  16 1.76  26 2.26  28 2.33  25 2.36
  23  0.665  0.001  0.628-  19 1.72  15 1.75  20 1.76  31 2.33  27 2.34  29 2.34  30 2.35
  24  0.999  0.665  0.118-   1 1.74  16 1.74  18 1.76  26 2.26  28 2.33  25 2.36
  25  0.000  0.000  0.247-  13 2.33   2 2.33   5 2.33  11 2.33   6 2.33   9 2.33  14 2.36  16 2.36
                            18 2.36  24 2.36   1 2.36  22 2.36  28 3.02  28 3.02  28 3.02  30 3.10
  26  0.667  0.333  0.000-   8 2.26  22 2.26   1 2.26   7 2.26  12 2.26  18 2.26   4 2.26  24 2.26
                            14 2.26  10 2.26  16 2.26   3 2.26
  27  0.667  0.333  0.500-   9 2.34  23 2.34  15 2.34   6 2.34  21 2.34  11 2.34   5 2.34  19 2.34
                             2 2.34  20 2.34  13 2.34  17 2.34  30 3.02  30 3.02  30 3.02
  28  0.333  0.667  0.244-  18 2.33  24 2.33  22 2.33   1 2.33  16 2.33  14 2.33  11 2.34   5 2.34
                             9 2.34   6 2.34   2 2.34  13 2.34  25 3.02  25 3.02  25 3.02
  29  0.333  0.667  0.756-   4 2.33  12 2.33   8 2.33   7 2.33   3 2.33  10 2.33  21 2.34  19 2.34
                            23 2.34  15 2.34  20 2.34  17 2.34  31 3.02  31 3.02  31 3.02
  30  0.000  0.000  0.500-  13 2.35  17 2.35   2 2.35  20 2.35  19 2.35   5 2.35  11 2.35  21 2.35
                             6 2.35  15 2.35   9 2.35  23 2.35  27 3.02  27 3.02  27 3.02  31 3.10
  31  0.000  0.000  0.753-  17 2.33  20 2.33  19 2.33  21 2.33  15 2.33  23 2.33  10 2.36   3 2.36
                             4 2.36  12 2.36   7 2.36   8 2.36  29 3.02  29 3.02  29 3.02  30 3.10

  LATTYP: Found a hexagonal cell.
 ALAT       =     5.2349730911
 C/A-ratio  =     2.3420000039

  Lattice vectors:

 A1 = (   2.6174860000,  -4.5336200000,   0.0000000000)
 A2 = (   2.6174860000,   4.5336200000,   0.0000000000)
 A3 = (   0.0000000000,   0.0000000000,  12.2603070000)

Analysis of symmetry for initial positions (statically):
 Subroutine PRICEL returns:
 Original cell was already a primitive cell.

 Routine SETGRP: Setting up the symmetry group for a
 hexagonal supercell.

 Subroutine GETGRP returns: Found 12 space group operations
 (whereof 12 operations were pure point group operations)
 out of a pool of 24 trial point group operations.

The static configuration has the point symmetry D_3h.

Analysis of symmetry for dynamics (positions and initial velocities):
 Subroutine PRICEL returns:
 Original cell was already a primitive cell.

 Routine SETGRP: Setting up the symmetry group for a
 hexagonal supercell.

 Subroutine GETGRP returns: Found 12 space group operations
 (whereof 12 operations were pure point group operations)
 out of a pool of 24 trial point group operations.

The dynamic configuration has the point symmetry D_3h.

 Subroutine INISYM returns: Found 12 space group operations
 (whereof 12 operations are pure point group operations),
 and found     1 'primitive' translations

                                     Primitive cell

  volume of cell :     290.9784

  direct lattice vectors                    reciprocal lattice vectors
     2.617486000 -4.533620000  0.000000000     0.191022989 -0.110287144  0.000000000
     2.617486000  4.533620000  0.000000000     0.191022989  0.110287144  0.000000000
     0.000000000  0.000000000 12.260307000     0.000000000  0.000000000  0.081564026

  length of vectors
     5.234973091  5.234973091 12.260307000     0.220574333  0.220574333  0.081564026

  position of ions in fractional coordinates (direct lattice)
     0.999348000  0.333952000  0.118054000
     0.664863000  0.664278000  0.372332000
     0.666048000  0.665396000  0.881946000
     0.334604000  0.000652000  0.881946000
     0.335722000  0.000585000  0.372332000
     0.999415000  0.335137000  0.372332000
     0.999348000  0.333952000  0.881946000
     0.666048000  0.000652000  0.881946000
     0.664863000  0.000585000  0.372332000
     0.334604000  0.333952000  0.881946000
     0.999415000  0.664278000  0.372332000
     0.999348000  0.665396000  0.881946000
     0.335722000  0.335137000  0.372332000
     0.334604000  0.333952000  0.118054000
     0.999415000  0.335137000  0.627668000
     0.666048000  0.665396000  0.118054000
     0.335722000  0.335137000  0.627668000
     0.334604000  0.000652000  0.118054000
     0.335722000  0.000585000  0.627668000
     0.664863000  0.664278000  0.627668000
     0.999415000  0.664278000  0.627668000
     0.666048000  0.000652000  0.118054000
     0.664863000  0.000585000  0.627668000
     0.999348000  0.665396000  0.118054000
     0.000000000  0.000000000  0.246802000
     0.666667000  0.333333000  0.000000000
     0.666667000  0.333333000  0.500000000
     0.333333000  0.666667000  0.244477000
     0.333333000  0.666667000  0.755523000
     0.000000000  0.000000000  0.500000000
     0.000000000  0.000000000  0.753198000

  ion indices of the primitive-cell ions
   primitive index   ion index
                 1           1
                 2           2
                 3           3
                 4           4
                 5           5
                 6           6
                 7           7
                 8           8
                 9           9
                10          10
                11          11
                12          12
                13          13
                14          14
                15          15
                16          16
                17          17
                18          18
                19          19
                20          20
                21          21
                22          22
                23          23
                24          24
                25          25
                26          26
                27          27
                28          28
                29          29
                30          30
                31          31

 KPOINTS: EA

Automatic generation of k-mesh.
 Grid dimensions read from file:
 generate k-points for:    8    8    3

 Generating k-lattice:

  Cartesian coordinates                     Fractional coordinates (reciprocal lattice)
     0.023877874 -0.013785893  0.000000000     0.125000000 -0.000000000  0.000000000
     0.023877874  0.013785893  0.000000000    -0.000000000  0.125000000  0.000000000
     0.000000000  0.000000000  0.027188009     0.000000000  0.000000000  0.333333333

  Length of vectors
     0.027571792  0.027571792  0.027188009

  Shift w.r.t. Gamma in fractional coordinates (k-lattice)
     0.000000000  0.000000000  0.000000000

 Subroutine IBZKPT returns following result:

 Found     20 irreducible k-points:

 Following reciprocal coordinates:
            Coordinates               Weight
  0.000000  0.000000  0.000000      1.000000
  0.125000  0.000000  0.000000      6.000000
  0.250000  0.000000  0.000000      6.000000
  0.375000 -0.000000  0.000000      6.000000
  0.500000  0.000000  0.000000      3.000000
  0.125000  0.125000  0.000000      6.000000
  0.250000  0.125000  0.000000     12.000000
  0.375000  0.125000  0.000000     12.000000
  0.250000  0.250000  0.000000      6.000000
  0.375000  0.250000  0.000000      6.000000
[...]
 non-spin polarized calculation
 Conjugate gradient for all bands (Freysoldt, et al. PRB 79, 241103 (2009))
 preconditioned conjugated gradient
 perform sub-space diagonalisation
    before iterative eigenvector-optimisation
 modified Broyden-mixing scheme, WC =      100.0
 initial mixing is a Kerker type mixing with AMIX =  0.4000 and BMIX =      1.0000
 Hartree-type preconditioning will be used
 using additional bands           17
 reciprocal scheme for non local part
 use partial core corrections
 no Harris-corrections to forces
 use gradient corrections
 use of overlap-Matrix (Vanderbilt PP)
 Gauss-broadening in eV      SIGMA  =   0.02

  energy-cutoff  :      600.00
  volume of cell :      290.98
      direct lattice vectors                 reciprocal lattice vectors
     2.617486000 -4.533620000  0.000000000     0.191022989 -0.110287144  0.000000000
     2.617486000  4.533620000  0.000000000     0.191022989  0.110287144  0.000000000
     0.000000000  0.000000000 12.260307000     0.000000000  0.000000000  0.081564026

  length of vectors
     5.234973091  5.234973091 12.260307000     0.220574333  0.220574333  0.081564026

 k-points in units of 2pi/SCALE and weight: EA
   0.00000000  0.00000000  0.00000000       0.005
   0.02387787 -0.01378589  0.00000000       0.031
   0.04775575 -0.02757179  0.00000000       0.031
   0.07163362 -0.04135768  0.00000000       0.031
   0.09551149 -0.05514357  0.00000000       0.016
   0.04775575  0.00000000  0.00000000       0.031
   0.07163362 -0.01378589  0.00000000       0.062
   0.09551149 -0.02757179  0.00000000       0.062
   0.09551149  0.00000000  0.00000000       0.031
   0.11938937 -0.01378589  0.00000000       0.031
   0.00000000  0.00000000  0.02718801       0.010
   0.02387787 -0.01378589  0.02718801       0.062
   0.04775575 -0.02757179  0.02718801       0.062
   0.07163362 -0.04135768  0.02718801       0.062
   0.09551149 -0.05514357  0.02718801       0.031
   0.04775575  0.00000000  0.02718801       0.062
   0.07163362 -0.01378589  0.02718801       0.125
   0.09551149 -0.02757179  0.02718801       0.125
   0.09551149  0.00000000  0.02718801       0.062
   0.11938937 -0.01378589  0.02718801       0.062

 k-points in reciprocal lattice and weights: EA
   0.00000000  0.00000000  0.00000000       0.005
   0.12500000  0.00000000  0.00000000       0.031
   0.25000000  0.00000000  0.00000000       0.031
   0.37500000 -0.00000000  0.00000000       0.031
   0.50000000  0.00000000  0.00000000       0.016
   0.12500000  0.12500000  0.00000000       0.031
   0.25000000  0.12500000  0.00000000       0.062
   0.37500000  0.12500000  0.00000000       0.062
   0.25000000  0.25000000  0.00000000       0.031
   0.37500000  0.25000000  0.00000000       0.031
   0.00000000  0.00000000  0.33333333       0.010
   0.12500000  0.00000000  0.33333333       0.062
   0.25000000  0.00000000  0.33333333       0.062
   0.37500000 -0.00000000  0.33333333       0.062
   0.50000000  0.00000000  0.33333333       0.031
   0.12500000  0.12500000  0.33333333       0.062
   0.25000000  0.12500000  0.33333333       0.125
   0.37500000  0.12500000  0.33333333       0.125
   0.25000000  0.25000000  0.33333333       0.062
   0.37500000  0.25000000  0.33333333       0.062

 position of ions in fractional coordinates (direct lattice)
   0.99934800  0.33395200  0.11805400
   0.66486300  0.66427800  0.37233200
   0.66604800  0.66539600  0.88194600
   0.33460400  0.00065200  0.88194600
   0.33572200  0.00058500  0.37233200
   0.99941500  0.33513700  0.37233200
   0.99934800  0.33395200  0.88194600
   0.66604800  0.00065200  0.88194600
   0.66486300  0.00058500  0.37233200
   0.33460400  0.33395200  0.88194600
   0.99941500  0.66427800  0.37233200
   0.99934800  0.66539600  0.88194600
   0.33572200  0.33513700  0.37233200
   0.33460400  0.33395200  0.11805400
   0.99941500  0.33513700  0.62766800
   0.66604800  0.66539600  0.11805400
   0.33572200  0.33513700  0.62766800
   0.33460400  0.00065200  0.11805400
   0.33572200  0.00058500  0.62766800
   0.66486300  0.66427800  0.62766800
   0.99941500  0.66427800  0.62766800
   0.66604800  0.00065200  0.11805400
   0.66486300  0.00058500  0.62766800
   0.99934800  0.66539600  0.11805400
   0.00000000  0.00000000  0.24680200
   0.66666700  0.33333300  0.00000000
   0.66666700  0.33333300  0.50000000
   0.33333300  0.66666700  0.24447700
   0.33333300  0.66666700  0.75552300
   0.00000000  0.00000000  0.50000000
   0.00000000  0.00000000  0.75319800

 position of ions in cartesian coordinates  (Angst):
   3.48989408 -3.01665261  1.44737828
   3.47900796 -0.00265217  4.56490463
   3.48503603 -0.00295592 10.81292872
   0.87752789 -1.51401147 10.81292872
   0.88027886 -1.51938381  4.56490463
   3.49317118 -3.01158403  4.56490463
   3.48989408 -3.01665261 10.81292872
   1.74507792 -3.01665261 10.81292872
   1.74180082 -3.01158403  4.56490463
   1.74993597 -0.00295592 10.81292872
   4.35469314 -1.51938381  4.56490463
   4.35744411 -1.51401147 10.81292872
   1.75596404 -0.00265217  4.56490463
   1.74993597 -0.00295592  1.44737828
   3.49317118 -3.01158403  7.69540237
   3.48503603 -0.00295592  1.44737828
   1.75596404 -0.00265217  7.69540237
   0.87752789 -1.51401147  1.44737828
   0.88027886 -1.51938381  7.69540237
   3.47900796 -0.00265217  7.69540237
   4.35469314 -1.51938381  7.69540237
   1.74507792 -3.01665261  1.44737828
   1.74180082 -3.01158403  7.69540237
   4.35744411 -1.51401147  1.44737828
   0.00000000  0.00000000  3.02586829
   2.61748600 -1.51120969  0.00000000
   2.61748600 -1.51120969  6.13015350
   2.61748600  1.51120969  2.99736307
   2.61748600  1.51120969  9.26294393
   0.00000000  0.00000000  6.13015350
   0.00000000  0.00000000  9.23443871

 k-point   1 :   0.0000 0.0000 0.0000  plane waves:    9745
 k-point   2 :   0.1250 0.0000 0.0000  plane waves:    9752
 k-point   3 :   0.2500 0.0000 0.0000  plane waves:    9728
 k-point   4 :   0.3750-0.0000 0.0000  plane waves:    9710
 k-point   5 :   0.5000 0.0000 0.0000  plane waves:    9724
 k-point   6 :   0.1250 0.1250 0.0000  plane waves:    9735
 k-point   7 :   0.2500 0.1250 0.0000  plane waves:    9701
 k-point   8 :   0.3750 0.1250 0.0000  plane waves:    9682
 k-point   9 :   0.2500 0.2500 0.0000  plane waves:    9724
 k-point  10 :   0.3750 0.2500 0.0000  plane waves:    9694
 k-point  11 :   0.0000 0.0000 0.3333  plane waves:    9769
 k-point  12 :   0.1250 0.0000 0.3333  plane waves:    9722
 k-point  13 :   0.2500 0.0000 0.3333  plane waves:    9720
 k-point  14 :   0.3750-0.0000 0.3333  plane waves:    9722
 k-point  15 :   0.5000 0.0000 0.3333  plane waves:    9674
 k-point  16 :   0.1250 0.1250 0.3333  plane waves:    9737
 k-point  17 :   0.2500 0.1250 0.3333  plane waves:    9714
 k-point  18 :   0.3750 0.1250 0.3333  plane waves:    9708
 k-point  19 :   0.2500 0.2500 0.3333  plane waves:    9711
 k-point  20 :   0.3750 0.2500 0.3333  plane waves:    9689

 maximum and minimum number of plane-waves per node :      4930     4815

 maximum number of plane-waves:      9769
 maximum index in each direction:
   IXMAX=   10   IYMAX=   10   IZMAX=   24
   IXMIN=  -10   IYMIN=  -10   IZMIN=  -24

 parallel 3D FFT for wavefunctions:
    minimum data exchange during FFTs selected (reduces bandwidth)
 parallel 3D FFT for charge:
    minimum data exchange during FFTs selected (reduces bandwidth)

 Broyden mixing: mesh for mixing (old mesh)
   NGX = 21   NGY = 21   NGZ = 49
  (NGX  = 84   NGY  = 84   NGZ  =196)
  gives a total of  21609 points

 initial charge density was supplied:
 charge density of overlapping atoms calculated
 number of electron     170.0000000 magnetization
 keeping initial charge density in first step

 Maximum index for augmentation-charges        16947 (set IRDMAX)

 First call to EWALD:  gamma=   0.267
 Maximum number of real-space cells 4x 4x 2
 Maximum number of reciprocal cells 2x 2x 5

--------------------------------------- Iteration      1(   1)  ---------------------------------------

 eigenvalue-minimisations  :  4320
 total energy-change (2. order) : 0.1461998E+04  (-0.1099567E+05)
 number of electron     170.0000000 magnetization
 augmentation part      170.0000000 magnetization

 Free energy of the ion-electron system (eV)
  alpha Z        PSCENC =       859.87425176
  Ewald energy   TEWEN  =    -11519.92216621
  -Hartree energ DENC   =     -3722.84091807
  -exchange      EXHF   =         0.00000000
  -V(xc)+E(xc)   XCENC  =       747.60248278
  PAW double counting   =     11405.05662442   -11392.32992451
  entropy T*S    EENTRO =        -0.00175210
  eigenvalues    EBANDS =       340.51132166
  atomic energy  EATOM  =     14744.04806344
  free energy    TOTEN  =      1461.99798317 eV

  energy without entropy =     1461.99973527  energy(sigma->0) =     1461.99885922

[...]

 eigenvalue-minimisations  :  4680
 total energy-change (2. order) :-0.1813983E+04  (-0.1765489E+04)
 number of electron     170.0000000 magnetization
 augmentation part      170.0000000 magnetization

[...]

 eigenvalue-minimisations  :     0
 total energy-change (2. order) : 0.1755222E+03  (-0.5382119E+02)
 number of electron     170.0000001 magnetization
 augmentation part       15.9902330 magnetization

[...]

--------------------------------------- Iteration      1(  46)  ---------------------------------------

 eigenvalue-minimisations  :     0
 total energy-change (2. order) :-0.4274625E-09  (-0.6996282E-09)
 number of electron     170.0000001 magnetization
 augmentation part       16.7597965 magnetization

 Free energy of the ion-electron system (eV)
  alpha Z        PSCENC =       859.87425176
  Ewald energy   TEWEN  =    -11519.92216621
  -Hartree energ DENC   =     -3508.80319096
  -exchange      EXHF   =         0.00000000
  -V(xc)+E(xc)   XCENC  =       762.92168075
  PAW double counting   =     19200.39905244   -19218.21115387
  entropy T*S    EENTRO =        -0.00186099
  eigenvalues    EBANDS =     -1683.71747150
  atomic energy  EATOM  =     14744.04806344
  free energy    TOTEN  =      -363.41279515 eV

  energy without entropy =     -363.41093417  energy(sigma->0) =     -363.41186466

  average scaling for gradient   1.0312

 average (electrostatic) potential at core
  the test charge radii are     0.7672  1.0818
  (the norm of the test charge is              1.0000)
       1 -25.2415       2 -25.4349       3 -25.2414       4 -25.2415       5 -25.4350
       6 -25.4350       7 -25.2415       8 -25.2415       9 -25.4350      10 -25.2414
      11 -25.4350      12 -25.2415      13 -25.4349      14 -25.2414      15 -25.4350
      16 -25.2414      17 -25.4349      18 -25.2415      19 -25.4350      20 -25.4349
      21 -25.4350      22 -25.2415      23 -25.4350      24 -25.2415      25 -79.2731
      26 -78.6534      27 -79.1603      28 -79.1216      29 -79.1216      30 -79.4876
      31 -79.2731

 E-fermi :   8.0223     XC(G=0): -13.0177     alpha+bet :-16.6709

 Fermi energy:         8.0223418912

 k-point     1 :       0.0000    0.0000    0.0000
  band No.  band energies     occupation
      1     -55.5187      2.00000
      2     -55.3119      2.00000
      3     -55.3113      2.00000
      4     -55.2016      2.00000
      5     -55.1553      2.00000
      6     -55.1553      2.00000
      7     -54.7478      2.00000
      8     -29.2003      2.00000
      9     -28.9107      2.00000
     10     -28.9107      2.00000
     11     -28.8962      2.00000
     12     -28.8395      2.00000
     13     -28.7900      2.00000
     14     -28.7618      2.00000
     15     -28.7617      2.00000
     16     -28.7601      2.00000
     17     -28.7601      2.00000
     18     -28.7061      2.00000
     19     -28.7026      2.00000
     20     -28.6125      2.00000
     21     -28.5008      2.00000
     22     -28.5008      2.00000
     23     -28.4366      2.00000
     24     -28.4366      2.00000
     25     -28.4365      2.00000
     26     -28.4365      2.00000
     27     -28.0388      2.00000
     28     -28.0388      2.00000
     29      -5.8331      2.00000
     30      -4.9113      2.00000
     31      -4.6677      2.00000
     32      -3.2963      2.00000
     33      -1.6214      2.00000
     34      -1.6214      2.00000
     35      -1.2352      2.00000
     36      -1.2351      2.00000
     37      -0.7236      2.00000
     38      -0.7236      2.00000
     39      -0.5059      2.00000
     40      -0.5059      2.00000
     41      -0.4587      2.00000
     42      -0.4587      2.00000
     43      -0.2733      2.00000
     44      -0.2733      2.00000
     45       0.1249      2.00000
     46       0.1249      2.00000
     47       0.2833      2.00000
     48       0.2833      2.00000
     49       0.3272      2.00000
     50       0.6019      2.00000
     51       1.1287      2.00000
     52       1.2882      2.00000
     53       1.7435      2.00000
     54       2.0890      2.00000
     55       2.3664      2.00000
     56       2.9394      2.00000
     57       3.0313      2.00000
     58       3.1650      2.00000
     59       3.2039      2.00000
     60       3.9143      2.00000
[...]
     88       9.3738      0.00000
     89       9.3738      0.00000
     90       9.5895      0.00000
     91       9.8465      0.00000
     92       9.8466      0.00000
     93       9.9115      0.00000
     94       9.9337      0.00000
     95       9.9755      0.00000
     96       9.9756      0.00000
     97      10.2560      0.00000
     98      10.8329      0.00000
     99      10.8612      0.00000
    100      11.1704      0.00000
    101      11.3138      0.00000
    102      11.3919      0.00000

[...]

 k-point    20 :       0.3750    0.2500    0.3333
  band No.  band energies     occupation
      1     -55.5160      2.00000
      2     -55.3062      2.00000
      3     -55.3056      2.00000
      4     -55.2044      2.00000
      5     -55.1611      2.00000
      6     -55.1611      2.00000
      7     -54.7478      2.00000
      8     -29.1938      2.00000
      9     -28.9370      2.00000
     10     -28.8834      2.00000
     11     -28.8524      2.00000
     12     -28.8216      2.00000
     13     -28.8028      2.00000
     14     -28.7902      2.00000
     15     -28.7900      2.00000
     16     -28.7193      2.00000
     17     -28.7192      2.00000
     18     -28.6698      2.00000
     19     -28.6688      2.00000
     20     -28.6125      2.00000
     21     -28.5648      2.00000
     22     -28.5309      2.00000
     23     -28.5308      2.00000
     24     -28.4730      2.00000
     25     -28.4028      2.00000
     26     -28.4026      2.00000
     27     -28.0397      2.00000
     28     -28.0395      2.00000
     29      -4.1754      2.00000
     30      -3.7393      2.00000
     31      -3.6725      2.00000
     32      -3.5002      2.00000
     33      -3.2691      2.00000
     34      -3.1621      2.00000
     35      -2.8810      2.00000
     36      -2.8058      2.00000
     37      -2.5768      2.00000
     38      -2.4650      2.00000
     39      -2.3989      2.00000
     40      -2.0462      2.00000
     41       0.3655      2.00000
     42       0.6045      2.00000
     43       1.0520      2.00000
     44       1.1568      2.00000
     45       1.3254      2.00000
     46       1.4337      2.00000
     47       1.5429      2.00000
     48       1.6666      2.00000
     49       1.8343      2.00000
     50       1.9186      2.00000
     51       2.0928      2.00000
     52       2.1585      2.00000
     53       2.8630      2.00000
     54       2.9994      2.00000
     55       3.0712      2.00000
     56       3.2261      2.00000
     57       3.3467      2.00000
     58       3.4347      2.00000
     59       3.5017      2.00000
     60       3.6388      2.00000
[...]
     88       8.4628      0.00000
     89       9.4476      0.00000
     90       9.5094      0.00000
     91       9.5645      0.00000
     92       9.7120      0.00000
     93       9.8067      0.00000
     94       9.9037      0.00000
     95       9.9895      0.00000
     96      10.1837      0.00000
     97      10.3412      0.00000
     98      10.4610      0.00000
     99      10.6591      0.00000
    100      11.1530      0.00000
    101      11.4853      0.00000
    102      11.8072      0.00000

 soft charge-density along one line, spin component           1
         0         1         2         3         4         5         6         7         8         9
 total charge-density along one line

------------------------ aborting loop because EDIFF is reached ----------------------------------------

  FREE ENERGIE OF THE ION-ELECTRON SYSTEM (eV)
  free  energy   TOTEN  =      -363.41279515 eV

  energy  without entropy=     -363.41093417  energy(sigma->0) =     -363.41186466

 writing wavefunctions