 vasp.6.2.0 18Jan21 (build Jan 05 2022 15:41:44) complex

 executed on             LinuxIFC date 2025.05.07  19:46:12

 INCAR:
   SYSTEM = routine with relax: pwdword
   ICHARG = 2
   NPAR = 6
   KPAR = 2
   NCORE = 2
   ADDGRID = T
   PREC = Acc
   ENCUT = 600
   METAGGA = R2SCAN
   LASPH = .TRUE.
   LMIXTAU = .FALSE.
   ALGO = A
   EDIFF = 1E-9
   NELM = 100
   NELMIN = 6
   IALGO = 38
   LREAL = F
   NSW = 0
   ISIF = -1
   ISMEAR = 0
   SIGMA = 0.02

 POTCAR:    PAW_PBE B 06Sep2000
 POTCAR:    PAW_PBE Mo_sv 02Feb2006
 POTCAR:    PAW_PBE Si 05Jan2001
|           W    W    AA    RRRRR   N    N  II  N    N   GGGG   !!!           |
|           W    W   A  A   R    R  NN   N  II  NN   N  G    G  !!!           |
|           W    W  A    A  R    R  N N  N  II  N N  N  G       !!!           |
|           W WW W  AAAAAA  RRRRR   N  N N  II  N  N N  G  GGG   !            |
|           WW  WW  A    A  R   R   N   NN  II  N   NN  G    G                |
|           W    W  A    A  R    R  N    N  II  N    N   GGGG   !!!           |
|     For optimal performance we recommend to set                             |
|       NCORE = 2 up to number-of-cores-per-socket                            |
|     This setting can greatly improve the performance of VASP for DFT.       |
|     The default, NCORE=1 might be grossly inefficient on modern             |
|     multi-core architectures or massively parallel machines. Do your        |
|     Unfortunately you need to use the default for GW and RPA                |
|     calculations (for HF NCORE is supported but not extensively tested      |
|     yet).                                                                   |

 POTCAR:    PAW_PBE B 06Sep2000
   VRHFIN =B: s2p1

   TITEL  = PAW_PBE B 06Sep2000
   POMASS =   10.811; ZVAL   =    3.000    mass and valenz
   ENMAX  =  318.614; ENMIN  =  238.960 eV

 POTCAR:    PAW_PBE Mo_sv 02Feb2006
   VRHFIN =Mo: 4p5s4d

   TITEL  = PAW_PBE Mo_sv 02Feb2006
   POMASS =   95.940; ZVAL   =   14.000    mass and valenz
   ENMAX  =  242.676; ENMIN  =  182.007 eV

 POTCAR:    PAW_PBE Si 05Jan2001
   VRHFIN =Si: s2p2

   TITEL  = PAW_PBE Si 05Jan2001
   POMASS =   28.085; ZVAL   =    4.000    mass and valenz
   ENMAX  =  245.345; ENMIN  =  184.009 eV

  PAW_PBE B 06Sep2000                   :
  PAW_PBE Mo_sv 02Feb2006               :
  PAW_PBE Si 05Jan2001                  :

 POSCAR: EA197
  positions in direct lattice

 METAGGA = R2SCA    LMAXTAU =  6    LMIXTAU =  F

 ion  position               nearest neighbor table
   1  0.750  0.250  0.500-   9 1.97  10 1.97   3 2.01   6 2.01   7 2.01   5 2.01
   2  0.250  0.750  0.500-   9 1.97  10 1.97   6 2.01   3 2.01   7 2.01   5 2.01
   3  0.000  0.500  0.000-   2 2.01   1 2.01   9 2.81   9 2.81  10 2.81   8 2.81  10 2.81   8 2.81
                             4 2.81   4 2.81   7 2.84   5 2.84   5 2.84   7 2.84
   4  0.500  0.500  0.000-   7 2.81   7 2.81   6 2.81   3 2.81   5 2.81   6 2.81   3 2.81   5 2.81
                             9 2.84   9 2.84  10 2.84  10 2.84
   5  0.500  0.500  0.500-   1 2.01   2 2.01   8 2.81   8 2.81   9 2.81  10 2.81   4 2.81   9 2.81
                            10 2.81   4 2.81   6 2.84   6 2.84   3 2.84   3 2.84
   6  0.500  0.000  0.000-   1 2.01   2 2.01  10 2.81  10 2.81   4 2.81   8 2.81   9 2.81   4 2.81
                             8 2.81   9 2.81   5 2.84   5 2.84   7 2.84   7 2.84
   7  0.000  0.000  0.500-   1 2.01   2 2.01   4 2.81   4 2.81   9 2.81  10 2.81   8 2.81  10 2.81
                             9 2.81   8 2.81   3 2.84   6 2.84   6 2.84   3 2.84
   8  0.000  0.000  0.000-   5 2.81   5 2.81   6 2.81   7 2.81   7 2.81   3 2.81   6 2.81   3 2.81
                            10 2.84   9 2.84   9 2.84  10 2.84
   9  0.500  0.000  0.500-   1 1.97   2 1.97   3 2.81   3 2.81   6 2.81   7 2.81   6 2.81   5 2.81
                             7 2.81   5 2.81   4 2.84   4 2.84   8 2.84   8 2.84
  10  0.000  0.500  0.500-   1 1.97   2 1.97   6 2.81   6 2.81   3 2.81   7 2.81   3 2.81   7 2.81
                             5 2.81   5 2.81   8 2.84   4 2.84   4 2.84   8 2.84

  Warning from LATTYP: Got some problem with cell dimensions!
  Tried to take original basis but could not verify dimensions!
  LATTYP: Found a base centered monoclinic cell.
 ALAT       =     7.8861313589
 B/A-ratio  =     1.0171687355
 C/A-ratio  =     0.7131922028
 COS(beta)  =    -0.7010628096

  Lattice vectors:

 A1 = (  -4.8981831534,   0.0000000000,   2.7643787085)
 A2 = (   1.6700566989,  -4.6046833579,   2.7643787085)
 A3 = (   3.2281264545,   4.6046833579,   0.0956525829)

Analysis of symmetry for initial positions (statically):
 Subroutine PRICEL returns following result:

  LATTYP: Found a simple monoclinic cell.
 ALAT       =     3.9430656794
 B/A-ratio  =     1.0171687355
 C/A-ratio  =     1.0171540466
 COS(beta)  =    -0.0000146891

[...]

   2 primitive cells build up your supercell.

 Routine SETGRP: Setting up the symmetry group for a
 base centered monoclinic supercell.

 Subroutine GETGRP returns: Found  4 space group operations
 (whereof  4 operations were pure point group operations)
 out of a pool of  4 trial point group operations.

The static configuration has the point symmetry C_2h.

Analysis of symmetry for dynamics (positions and initial velocities):
 Subroutine PRICEL returns following result:

  LATTYP: Found a simple monoclinic cell.
 ALAT       =     3.9430656794
 B/A-ratio  =     1.0171687355
 C/A-ratio  =     1.0171540466
 COS(beta)  =    -0.0000146891

  Lattice vectors:

 A1 = (   1.6140632273,   2.3023416790,  -2.7643787085)
 A2 = (  -3.2841199261,   2.3023416790,   0.0000000000)
 A3 = (   1.6140632273,   2.3023416790,   2.8600312915)

   2 primitive cells build up your supercell.

 Routine SETGRP: Setting up the symmetry group for a
 base centered monoclinic supercell.

 Subroutine GETGRP returns: Found  4 space group operations
 (whereof  4 operations were pure point group operations)
 out of a pool of  4 trial point group operations.

The dynamic configuration has the point symmetry C_2h.

 Subroutine INISYM returns: Found  4 space group operations
 (whereof  4 operations are pure point group operations),
 and found     2 'primitive' translations

                                     Primitive cell

  volume of cell :      63.4281

  direct lattice vectors                    reciprocal lattice vectors
     1.614063227  2.302341679 -2.764378709     0.103814686  0.148083962 -0.177796427
    -3.284119926  2.302341679  0.000000000    -0.204157331  0.143125082  0.000000000
     1.614063227  2.302341679  2.860031291     0.100342646  0.143131354  0.177796427

  length of vectors
     3.943065679  4.010763131  4.010705212     0.253609775  0.249329110  0.249332710

  position of ions in fractional coordinates (direct lattice)
     0.500000000  0.500000000  0.500000000
     0.500000000  0.500000000  1.000000000
     1.000000000  1.000000000  1.000000000
     0.500000000  1.000000000  0.500000000
     1.000000000  0.500000000  0.500000000

  ion indices of the primitive-cell ions
   primitive index   ion index
                 1           1
                 2           3
                 3           4
                 4           5
                 5           9

 KPOINTS: EA

Automatic generation of k-mesh.
 Grid dimensions read from file:
 generate k-points for:    8    8    9

 Generating k-lattice:

  Cartesian coordinates                     Fractional coordinates (reciprocal lattice)
     0.025519666  0.009255640  0.000000000     0.125000000  0.000000000  0.000000000
     0.000000000  0.027146275  0.000000000     0.000000000  0.125000000  0.000000000
     0.011149183  0.015903484  0.019755159     0.000000000 -0.000000000  0.111111111

  Length of vectors
     0.027146275  0.027146275  0.027703634

  Shift w.r.t. Gamma in fractional coordinates (k-lattice)
     0.000000000  0.000000000  0.000000000

 Subroutine IBZKPT returns following result:

 Found    165 irreducible k-points:

 Following reciprocal coordinates:
            Coordinates               Weight
  0.000000  0.000000  0.000000      1.000000
  0.125000  0.000000  0.000000      4.000000
  0.250000  0.000000  0.000000      4.000000
  0.375000  0.000000  0.000000      4.000000
  0.500000  0.000000  0.000000      2.000000
  0.125000  0.125000  0.000000      2.000000
  0.250000  0.125000  0.000000      4.000000
  0.375000  0.125000  0.000000      4.000000
  0.500000  0.125000  0.000000      4.000000
 -0.375000  0.125000  0.000000      4.000000
 -0.250000  0.125000  0.000000      4.000000
 -0.125000  0.125000  0.000000      2.000000
  0.250000  0.250000  0.000000      2.000000
  0.375000  0.250000  0.000000      4.000000
  0.500000  0.250000  0.000000      4.000000
 -0.375000  0.250000  0.000000      4.000000
 -0.250000  0.250000  0.000000      2.000000
  0.375000  0.375000  0.000000      2.000000
  0.500000  0.375000  0.000000      4.000000
 -0.375000  0.375000  0.000000      2.000000
  0.500000  0.500000  0.000000      1.000000
 -0.000000  0.000000  0.111111      2.000000
  0.125000  0.000000  0.111111      4.000000
  0.250000  0.000000  0.111111      4.000000
  0.375000  0.000000  0.111111      4.000000
  0.500000  0.000000  0.111111      4.000000
 -0.375000 -0.000000  0.111111      4.000000
 -0.250000  0.000000  0.111111      4.000000
 -0.125000  0.000000  0.111111      4.000000
  0.125000  0.125000  0.111111      2.000000
  0.250000  0.125000  0.111111      4.000000
  0.375000  0.125000  0.111111      4.000000
  0.500000  0.125000  0.111111      4.000000
 -0.375000  0.125000  0.111111      4.000000
 -0.250000  0.125000  0.111111      4.000000
 -0.125000  0.125000  0.111111      4.000000
  0.250000  0.250000  0.111111      2.000000
  0.375000  0.250000  0.111111      4.000000
  0.500000  0.250000  0.111111      4.000000
 -0.375000  0.250000  0.111111      4.000000
 -0.250000  0.250000  0.111111      4.000000
 -0.125000  0.250000  0.111111      4.000000
  0.375000  0.375000  0.111111      2.000000
  0.500000  0.375000  0.111111      4.000000
 -0.375000  0.375000  0.111111      4.000000
 -0.250000  0.375000  0.111111      4.000000
 -0.125000  0.375000  0.111111      4.000000
  0.500000  0.500000  0.111111      2.000000
 -0.375000  0.500000  0.111111      4.000000
 -0.250000  0.500000  0.111111      4.000000
 -0.125000  0.500000  0.111111      4.000000
 -0.375000 -0.375000  0.111111      2.000000
 -0.250000 -0.375000  0.111111      4.000000
 -0.125000 -0.375000  0.111111      4.000000
 -0.250000 -0.250000  0.111111      2.000000
 -0.125000 -0.250000  0.111111      4.000000
 -0.125000 -0.125000  0.111111      2.000000
  0.000000  0.000000  0.222222      2.000000
  0.125000  0.000000  0.222222      4.000000
  0.250000  0.000000  0.222222      4.000000
[...]
  0.375000  0.375000  0.444444      2.000000
  0.500000  0.375000  0.444444      4.000000
 -0.375000  0.375000  0.444444      4.000000
 -0.250000  0.375000  0.444444      4.000000
 -0.125000  0.375000  0.444444      4.000000
  0.500000  0.500000  0.444444      2.000000
 -0.375000  0.500000  0.444444      4.000000
 -0.250000  0.500000  0.444444      4.000000
 -0.125000  0.500000  0.444444      4.000000
[...]
  -0.00000000  0.00000000  0.11111111       0.003
   0.12500000  0.00000000  0.11111111       0.007
   0.25000000  0.00000000  0.11111111       0.007
   0.37500000  0.00000000  0.11111111       0.007
   0.50000000  0.00000000  0.11111111       0.007
  -0.37500000 -0.00000000  0.11111111       0.007
  -0.25000000  0.00000000  0.11111111       0.007
  -0.12500000  0.00000000  0.11111111       0.007
   0.12500000  0.12500000  0.11111111       0.003
   0.25000000  0.12500000  0.11111111       0.007
   0.37500000  0.12500000  0.11111111       0.007
   0.50000000  0.12500000  0.11111111       0.007
  -0.37500000  0.12500000  0.11111111       0.007
  -0.25000000  0.12500000  0.11111111       0.007
  -0.12500000  0.12500000  0.11111111       0.007
   0.25000000  0.25000000  0.11111111       0.003
   0.37500000  0.25000000  0.11111111       0.007
   0.50000000  0.25000000  0.11111111       0.007
  -0.37500000  0.25000000  0.11111111       0.007
  -0.25000000  0.25000000  0.11111111       0.007
  -0.12500000  0.25000000  0.11111111       0.007
   0.37500000  0.37500000  0.11111111       0.003
   0.50000000  0.37500000  0.11111111       0.007
  -0.37500000  0.37500000  0.11111111       0.007
  -0.25000000  0.37500000  0.11111111       0.007
  -0.12500000  0.37500000  0.11111111       0.007
   0.50000000  0.50000000  0.11111111       0.003
  -0.37500000  0.50000000  0.11111111       0.007
  -0.25000000  0.50000000  0.11111111       0.007
  -0.12500000  0.50000000  0.11111111       0.007
  -0.37500000 -0.37500000  0.11111111       0.003
  -0.25000000 -0.37500000  0.11111111       0.007
  -0.12500000 -0.37500000  0.11111111       0.007
  -0.25000000 -0.25000000  0.11111111       0.003
  -0.12500000 -0.25000000  0.11111111       0.007
  -0.12500000 -0.12500000  0.11111111       0.003
   0.00000000  0.00000000  0.22222222       0.003
   0.12500000  0.00000000  0.22222222       0.007
   0.25000000  0.00000000  0.22222222       0.007
[...]
   0.37500000  0.37500000  0.44444444       0.003
   0.50000000  0.37500000  0.44444444       0.007
  -0.37500000  0.37500000  0.44444444       0.007
  -0.25000000  0.37500000  0.44444444       0.007
  -0.12500000  0.37500000  0.44444444       0.007
   0.50000000  0.50000000  0.44444444       0.003
  -0.37500000  0.50000000  0.44444444       0.007
  -0.25000000  0.50000000  0.44444444       0.007
  -0.12500000  0.50000000  0.44444444       0.007
  -0.37500000 -0.37500000  0.44444444       0.003
  -0.25000000 -0.37500000  0.44444444       0.007
  -0.12500000 -0.37500000  0.44444444       0.007
  -0.25000000 -0.25000000  0.44444444       0.003
  -0.12500000 -0.25000000  0.44444444       0.007
  -0.12500000 -0.12500000  0.44444444       0.003

 position of ions in fractional coordinates (direct lattice)
   0.75000000  0.25000000  0.50000000
   0.25000000  0.75000000  0.50000000
   0.00000000  0.50000000  0.00000000
   0.50000000  0.50000000  0.00000000
   0.50000000  0.50000000  0.50000000
   0.50000000  0.00000000  0.00000000
   0.00000000  0.00000000  0.50000000
   0.00000000  0.00000000  0.00000000
   0.50000000  0.00000000  0.50000000
   0.00000000  0.50000000  0.50000000

 position of ions in cartesian coordinates  (Angst):
   3.25612319  1.15117084  0.04782629
  -0.02799674  3.45351252  0.04782629
  -0.83502835  2.30234168 -1.38218935
   1.61406323  2.30234168 -2.76437871
   1.61406323  2.30234168  0.04782629
   2.44909158  0.00000000 -1.38218935
   0.00000000  0.00000000  2.81220500
   0.00000000  0.00000000  0.00000000
   2.44909158  0.00000000  1.43001565
  -0.83502835  2.30234168  1.43001565

 k-point   1 :   0.0000 0.0000 0.0000  plane waves:    4251
 k-point   2 :   0.1250 0.0000 0.0000  plane waves:    4254
 k-point   3 :   0.2500 0.0000 0.0000  plane waves:    4243
 k-point   4 :   0.3750 0.0000 0.0000  plane waves:    4226
 k-point   5 :   0.5000 0.0000 0.0000  plane waves:    4240
 k-point   6 :   0.1250 0.1250 0.0000  plane waves:    4242
 k-point   7 :   0.2500 0.1250 0.0000  plane waves:    4240
 k-point   8 :   0.3750 0.1250 0.0000  plane waves:    4238
 k-point   9 :   0.5000 0.1250 0.0000  plane waves:    4243
 k-point  10 :  -0.3750 0.1250 0.0000  plane waves:    4234
 k-point  11 :  -0.2500 0.1250 0.0000  plane waves:    4230
 k-point  12 :  -0.1250 0.1250 0.0000  plane waves:    4236
 k-point  13 :   0.2500 0.2500 0.0000  plane waves:    4241
 k-point  14 :   0.3750 0.2500 0.0000  plane waves:    4241
 k-point  15 :   0.5000 0.2500 0.0000  plane waves:    4229
 k-point  16 :  -0.3750 0.2500 0.0000  plane waves:    4224
 k-point  17 :  -0.2500 0.2500 0.0000  plane waves:    4226
 k-point  18 :   0.3750 0.3750 0.0000  plane waves:    4217
 k-point  19 :   0.5000 0.3750 0.0000  plane waves:    4226
 k-point  20 :  -0.3750 0.3750 0.0000  plane waves:    4222
 k-point  21 :   0.5000 0.5000 0.0000  plane waves:    4212
 k-point  22 :  -0.0000 0.0000 0.1111  plane waves:    4244
 k-point  23 :   0.1250 0.0000 0.1111  plane waves:    4233
 k-point  24 :   0.2500 0.0000 0.1111  plane waves:    4233
 k-point  25 :   0.3750 0.0000 0.1111  plane waves:    4241
 k-point  26 :   0.5000 0.0000 0.1111  plane waves:    4240
 k-point  27 :  -0.3750-0.0000 0.1111  plane waves:    4239
 k-point  28 :  -0.2500 0.0000 0.1111  plane waves:    4237
 k-point  29 :  -0.1250 0.0000 0.1111  plane waves:    4253
 k-point  30 :   0.1250 0.1250 0.1111  plane waves:    4242
 k-point  31 :   0.2500 0.1250 0.1111  plane waves:    4237
 k-point  32 :   0.3750 0.1250 0.1111  plane waves:    4236
 k-point  33 :   0.5000 0.1250 0.1111  plane waves:    4240
 k-point  34 :  -0.3750 0.1250 0.1111  plane waves:    4230
 k-point  35 :  -0.2500 0.1250 0.1111  plane waves:    4230
 k-point  36 :  -0.1250 0.1250 0.1111  plane waves:    4240
 k-point  37 :   0.2500 0.2500 0.1111  plane waves:    4232
 k-point  38 :   0.3750 0.2500 0.1111  plane waves:    4224
 k-point  39 :   0.5000 0.2500 0.1111  plane waves:    4226
 k-point  40 :  -0.3750 0.2500 0.1111  plane waves:    4220
 k-point  41 :  -0.2500 0.2500 0.1111  plane waves:    4219
 k-point  42 :  -0.1250 0.2500 0.1111  plane waves:    4222
 k-point  43 :   0.3750 0.3750 0.1111  plane waves:    4230
 k-point  44 :   0.5000 0.3750 0.1111  plane waves:    4227
 k-point  45 :  -0.3750 0.3750 0.1111  plane waves:    4226
 k-point  46 :  -0.2500 0.3750 0.1111  plane waves:    4237
 k-point  47 :  -0.1250 0.3750 0.1111  plane waves:    4237
 k-point  48 :   0.5000 0.5000 0.1111  plane waves:    4226
 k-point  49 :  -0.3750 0.5000 0.1111  plane waves:    4238
 k-point  50 :  -0.2500 0.5000 0.1111  plane waves:    4241
 k-point  51 :  -0.1250 0.5000 0.1111  plane waves:    4235
 k-point  52 :  -0.3750-0.3750 0.1111  plane waves:    4233
 k-point  53 :  -0.2500-0.3750 0.1111  plane waves:    4235
 k-point  54 :  -0.1250-0.3750 0.1111  plane waves:    4239
 k-point  55 :  -0.2500-0.2500 0.1111  plane waves:    4226
 k-point  56 :  -0.1250-0.2500 0.1111  plane waves:    4230
 k-point  57 :  -0.1250-0.1250 0.1111  plane waves:    4211
 k-point  58 :   0.0000 0.0000 0.2222  plane waves:    4220
 k-point  59 :   0.1250 0.0000 0.2222  plane waves:    4216
 k-point  60 :   0.2500 0.0000 0.2222  plane waves:    4231
[...]
 k-point 151 :   0.3750 0.3750 0.4444  plane waves:    4227
 k-point 152 :   0.5000 0.3750 0.4444  plane waves:    4234
 k-point 153 :  -0.3750 0.3750 0.4444  plane waves:    4249
 k-point 154 :  -0.2500 0.3750 0.4444  plane waves:    4241
 k-point 155 :  -0.1250 0.3750 0.4444  plane waves:    4241
 k-point 156 :   0.5000 0.5000 0.4444  plane waves:    4246
 k-point 157 :  -0.3750 0.5000 0.4444  plane waves:    4235
 k-point 158 :  -0.2500 0.5000 0.4444  plane waves:    4230
 k-point 159 :  -0.1250 0.5000 0.4444  plane waves:    4233
 k-point 160 :  -0.3750-0.3750 0.4444  plane waves:    4223
 k-point 161 :  -0.2500-0.3750 0.4444  plane waves:    4229
 k-point 162 :  -0.1250-0.3750 0.4444  plane waves:    4236
 k-point 163 :  -0.2500-0.2500 0.4444  plane waves:    4237
 k-point 164 :  -0.1250-0.2500 0.4444  plane waves:    4229
 k-point 165 :  -0.1250-0.1250 0.4444  plane waves:    4226

 maximum and minimum number of plane-waves per node :      2150     2085

 maximum number of plane-waves:      4254
 maximum index in each direction:
   IXMAX=   11   IYMAX=   11   IZMAX=   11
   IXMIN=  -11   IYMIN=  -11   IZMIN=  -11

 parallel 3D FFT for wavefunctions:
    minimum data exchange during FFTs selected (reduces bandwidth)
 parallel 3D FFT for charge:
    minimum data exchange during FFTs selected (reduces bandwidth)

 Broyden mixing: mesh for mixing (old mesh)
   NGX = 23   NGY = 23   NGZ = 23
  (NGX  = 96   NGY  = 96   NGZ  = 96)
  gives a total of  12167 points

 initial charge density was supplied:
 charge density of overlapping atoms calculated
 number of electron      98.0000000 magnetization
 keeping initial charge density in first step

 Maximum index for augmentation-charges        24661 (set IRDMAX)

 First call to EWALD:  gamma=   0.353
 Maximum number of real-space cells 3x 3x 3
 Maximum number of reciprocal cells 3x 3x 3

--------------------------------------- Iteration      1(   1)  ---------------------------------------

 eigenvalue-minimisations  : 19800
 total energy-change (2. order) : 0.1063624E+04  (-0.6717275E+04)
 number of electron      98.0000000 magnetization
 augmentation part       98.0000000 magnetization

 Free energy of the ion-electron system (eV)
  alpha Z        PSCENC =       658.57587637
  Ewald energy   TEWEN  =     -9777.28401687
  -Hartree energ DENC   =     -2177.85064552
  -exchange      EXHF   =         0.00000000
  -V(xc)+E(xc)   XCENC  =       471.43020495
  PAW double counting   =      9166.97638771    -9126.13493418
  entropy T*S    EENTRO =        -0.00059136
  eigenvalues    EBANDS =       325.74429030
  atomic energy  EATOM  =     11522.16744521
  free energy    TOTEN  =      1063.62401661 eV

  energy without entropy =     1063.62460797  energy(sigma->0) =     1063.62431229

[...]

 eigenvalue-minimisations  : 21792
 total energy-change (2. order) :-0.1242650E+04  (-0.1209502E+04)
 number of electron      98.0000000 magnetization
 augmentation part       98.0000000 magnetization

[...]

 eigenvalue-minimisations  :     0
 total energy-change (2. order) :-0.1242552E-07  ( 0.1409135E-07)
 number of electron      98.0000001 magnetization
 augmentation part       14.3656153 magnetization

[...]

 eigenvalue-minimisations  :     0
 total energy-change (2. order) :-0.1336957E-08  (-0.1058317E-08)
 number of electron      98.0000001 magnetization
 augmentation part       14.3656143 magnetization

[...]

--------------------------------------- Iteration      1(  38)  ---------------------------------------

 eigenvalue-minimisations  :     0
 total energy-change (2. order) : 0.3637979E-11  (-0.4169366E-09)
 number of electron      98.0000001 magnetization
 augmentation part       14.3656139 magnetization

 Free energy of the ion-electron system (eV)
  alpha Z        PSCENC =       658.57587637
  Ewald energy   TEWEN  =     -9777.28401687
  -Hartree energ DENC   =     -2039.44206291
  -exchange      EXHF   =         0.00000000
  -V(xc)+E(xc)   XCENC  =       480.58357364
  PAW double counting   =     13202.24685581   -13182.82482841
  entropy T*S    EENTRO =        -0.00112153
  eigenvalues    EBANDS =     -1046.99781893
  atomic energy  EATOM  =     11522.16744521
  free energy    TOTEN  =      -182.97609764 eV

  energy without entropy =     -182.97497610  energy(sigma->0) =     -182.97553687

  average scaling for gradient   0.9115

 average (electrostatic) potential at core
  the test charge radii are     0.7672  1.0818  0.9892
  (the norm of the test charge is              1.0000)
       1 -21.0836       2 -21.0836       3 -74.1214       4 -74.3003       5 -74.1091
       6 -74.1214       7 -74.1091       8 -74.3003       9 -80.6299      10 -80.6299

 E-fermi :  12.6549     XC(G=0): -14.2516     alpha+bet :-20.3091

 Fermi energy:        12.6549274059

 k-point     1 :       0.0000    0.0000    0.0000
  band No.  band energies     occupation
      1     -50.4578      2.00000
      2     -50.3291      2.00000
      3     -50.2487      2.00000
      4     -50.2367      2.00000
      5     -50.2048      2.00000
      6     -50.1551      2.00000
      7     -24.4961      2.00000
      8     -24.4593      2.00000
      9     -24.3010      2.00000
     10     -24.2994      2.00000
     11     -24.2715      2.00000
     12     -24.1927      2.00000
     13     -24.1814      2.00000
     14     -23.7490      2.00000
     15     -23.7478      2.00000
     16     -23.6511      2.00000
     17     -23.4844      2.00000
     18     -23.3099      2.00000
     19     -23.3052      2.00000
     20     -23.2986      2.00000
     21     -23.2232      2.00000
     22     -23.1630      2.00000
     23     -23.1556      2.00000
     24     -23.0960      2.00000
     25      -0.9128      2.00000
     26       1.1362      2.00000
     27       4.4799      2.00000
     28       5.2028      2.00000
     29       5.7469      2.00000
     30       5.7486      2.00000
     31       6.5641      2.00000
     32       6.9250      2.00000
     33       7.9324      2.00000
     34       8.0216      2.00000
     35       8.0997      2.00000
     36       8.1796      2.00000
     37       8.1837      2.00000
     38       9.1186      2.00000
     39       9.1255      2.00000
     40       9.2255      2.00000
     41       9.2342      2.00000
     42       9.8745      2.00000
     43       9.8774      2.00000
     44      11.0514      2.00000
     45      12.2017      2.00000
     46      12.2095      2.00000
     47      12.3060      2.00000
     48      12.3105      2.00000
     49      12.3479      2.00000
     50      12.7127      0.00004
     51      12.7571      0.00000
     52      13.3178      0.00000
     53      13.6791      0.00000
     54      14.1903      0.00000
     55      14.9679      0.00000
     56      15.0705      0.00000
     57      15.8420      0.00000
     58      16.1713      0.00000
     59      16.7470      0.00000
     60      16.7533      0.00000

[...]

 k-point   165 :      -0.1250   -0.1250    0.4444
  band No.  band energies     occupation
      1     -50.4063      2.00000
      2     -50.3384      2.00000
      3     -50.2487      2.00000
      4     -50.2293      2.00000
      5     -50.2235      2.00000
      6     -50.1886      2.00000
      7     -24.2749      2.00000
      8     -24.2310      2.00000
      9     -24.1963      2.00000
     10     -24.1620      2.00000
     11     -24.1403      2.00000
     12     -24.0865      2.00000
     13     -23.9366      2.00000
     14     -23.8407      2.00000
     15     -23.8236      2.00000
     16     -23.7286      2.00000
     17     -23.6173      2.00000
     18     -23.5824      2.00000
     19     -23.5002      2.00000
     20     -23.3436      2.00000
     21     -23.3194      2.00000
     22     -23.2814      2.00000
     23     -23.2429      2.00000
     24     -23.2021      2.00000
     25       0.1435      2.00000
     26       1.4344      2.00000
     27       3.1429      2.00000
     28       4.9187      2.00000
     29       6.0380      2.00000
     30       6.2467      2.00000
     31       7.2826      2.00000
     32       7.4325      2.00000
     33       7.5203      2.00000
     34       7.6332      2.00000
     35       7.7958      2.00000
     36       8.6951      2.00000
     37       8.8431      2.00000
     38       8.8498      2.00000
     39       9.2251      2.00000
     40       9.2657      2.00000
     41       9.7280      2.00000
     42      10.1080      2.00000
     43      10.1139      2.00000
     44      10.7456      2.00000
     45      11.2872      2.00000
     46      11.4401      2.00000
     47      12.0239      2.00000
     48      12.1481      2.00000
     49      12.7991      0.00000
     50      12.8267      0.00000
     51      13.1012      0.00000
     52      13.2807      0.00000
     53      13.5923      0.00000
     54      13.7083      0.00000
     55      13.8590      0.00000
     56      14.2562      0.00000
     57      14.9201      0.00000
     58      15.2225      0.00000
     59      15.3852      0.00000
     60      15.9605      0.00000

 soft charge-density along one line, spin component           1
         0         1         2         3         4         5         6         7         8         9
 total charge-density along one line

------------------------ aborting loop because EDIFF is reached ----------------------------------------

  FREE ENERGIE OF THE ION-ELECTRON SYSTEM (eV)
  free  energy   TOTEN  =      -182.97609764 eV

  energy  without entropy=     -182.97497610  energy(sigma->0) =     -182.97553687

 writing wavefunctions