 vasp.6.2.0 18Jan21 (build Jan 05 2022 15:41:44) complex

 executed on             LinuxIFC date 2025.05.07  15:19:29

 INCAR:
   SYSTEM = routine with relax: pwdword
   ICHARG = 2
   NPAR = 6
   KPAR = 2
   NCORE = 2
   ADDGRID = T
   PREC = Acc
   ENCUT = 600
   METAGGA = R2SCAN
   LASPH = .TRUE.
   LMIXTAU = .FALSE.
   ALGO = A
   EDIFF = 1E-9
   NELM = 100
   NELMIN = 6
   IALGO = 38
   LREAL = F
   NSW = 0
   ISIF = -1
   ISMEAR = 0
   SIGMA = 0.02
   SYMPREC = 1E-4

 POTCAR:    PAW_PBE B 06Sep2000
 POTCAR:    PAW_PBE Mo_sv 02Feb2006
 POTCAR:    PAW_PBE Si 05Jan2001
|           W    W    AA    RRRRR   N    N  II  N    N   GGGG   !!!           |
|           W    W   A  A   R    R  NN   N  II  NN   N  G    G  !!!           |
|           W    W  A    A  R    R  N N  N  II  N N  N  G       !!!           |
|           W WW W  AAAAAA  RRRRR   N  N N  II  N  N N  G  GGG   !            |
|           WW  WW  A    A  R   R   N   NN  II  N   NN  G    G                |
|           W    W  A    A  R    R  N    N  II  N    N   GGGG   !!!           |
|     For optimal performance we recommend to set                             |
|       NCORE = 2 up to number-of-cores-per-socket                            |
|     This setting can greatly improve the performance of VASP for DFT.       |
|     The default, NCORE=1 might be grossly inefficient on modern             |
|     multi-core architectures or massively parallel machines. Do your        |
|     Unfortunately you need to use the default for GW and RPA                |
|     calculations (for HF NCORE is supported but not extensively tested      |
|     yet).                                                                   |

 POTCAR:    PAW_PBE B 06Sep2000
   VRHFIN =B: s2p1

   TITEL  = PAW_PBE B 06Sep2000
   POMASS =   10.811; ZVAL   =    3.000    mass and valenz
   ENMAX  =  318.614; ENMIN  =  238.960 eV

 POTCAR:    PAW_PBE Mo_sv 02Feb2006
   VRHFIN =Mo: 4p5s4d

   TITEL  = PAW_PBE Mo_sv 02Feb2006
   POMASS =   95.940; ZVAL   =   14.000    mass and valenz
   ENMAX  =  242.676; ENMIN  =  182.007 eV

 POTCAR:    PAW_PBE Si 05Jan2001
   VRHFIN =Si: s2p2

   TITEL  = PAW_PBE Si 05Jan2001
   POMASS =   28.085; ZVAL   =    4.000    mass and valenz
   ENMAX  =  245.345; ENMIN  =  184.009 eV

  PAW_PBE B 06Sep2000                   :
  PAW_PBE Mo_sv 02Feb2006               :
  PAW_PBE Si 05Jan2001                  :

 POSCAR: EA45
  positions in direct lattice

 METAGGA = R2SCA    LMAXTAU =  6    LMIXTAU =  F

 ion  position               nearest neighbor table
   1  0.500  0.000  0.000-   9 1.95  10 1.95  15 1.95  16 1.95   6 2.75   8 2.75   5 2.75   7 2.75

   2  0.000  0.000  0.500-   9 1.95  10 1.95  11 1.95  12 1.95   5 2.75   7 2.75   6 2.75   8 2.75

[...]

  16  0.500  0.750  0.750-   7 1.94   4 1.95   1 1.95   8 1.95   9 2.75  13 2.75  14 2.76  10 2.76

  LATTYP: Found a body centered tetragonal cell.
 ALAT       =     7.7839291759
 C/A-ratio  =     0.9068426490

  Lattice vectors:

 A1 = (   6.2547397200,   0.0000000000,  -1.9051059467)
 A2 = (  -3.4321659937,   5.2289583625,  -1.9051059467)
 A3 = (   0.0000000000,   0.0000000000,   6.5384400000)

Analysis of symmetry for initial positions (statically):
 Subroutine PRICEL returns following result:

  LATTYP: Found a simple tetragonal cell.
 ALAT       =     5.5040473259
 C/A-ratio  =     0.6412371239

[...]

   2 primitive cells build up your supercell.

 Routine SETGRP: Setting up the symmetry group for a
 body centered tetragonal supercell.

 Subroutine GETGRP returns: Found 16 space group operations
 (whereof 16 operations were pure point group operations)
 out of a pool of 16 trial point group operations.

The static configuration has the point symmetry D_4h.

Analysis of symmetry for dynamics (positions and initial velocities):
 Subroutine PRICEL returns following result:

  LATTYP: Found a simple tetragonal cell.
 ALAT       =     5.5040473259
 C/A-ratio  =     0.6412371239

  Lattice vectors:

 A1 = (  -4.8434528569,   2.6144791813,   0.0000000000)
 A2 = (   1.4112868632,   2.6144791813,   4.6333340533)
 A3 = (   1.4112868632,   2.6144791813,  -1.9051059467)

   2 primitive cells build up your supercell.

 Routine SETGRP: Setting up the symmetry group for a
 body centered tetragonal supercell.

 Subroutine GETGRP returns: Found 16 space group operations
 (whereof 16 operations were pure point group operations)
 out of a pool of 16 trial point group operations.

The dynamic configuration has the point symmetry D_4h.

 Subroutine INISYM returns: Found 16 space group operations
 (whereof 16 operations are pure point group operations),
 and found     2 'primitive' translations

                                     Primitive cell

  volume of cell :     106.9224

  direct lattice vectors                    reciprocal lattice vectors
    -4.843452857  2.614479181  0.000000000    -0.159878755  0.086302002  0.000000000
     1.411286863  2.614479181  4.633334053     0.046583890  0.086298975  0.152941680
     1.411286863  2.614479181 -1.905105947     0.113294866  0.209884379 -0.152941680

  length of vectors
     5.504047326  5.504090883  3.529399477     0.181684484  0.181683047  0.283334320

  position of ions in fractional coordinates (direct lattice)
     0.500000000  1.000000000  0.500000000
     0.000000000  0.500000000  0.500000000
     0.500000000  0.500000000  0.500000000
     1.000000000  1.000000000  0.500000000
     0.749670000  0.749670000  0.500000000
     0.250330000  0.250330000  0.500000000
     0.250330000  0.749670000  0.500000000
     0.749670000  0.250330000  0.500000000

  ion indices of the primitive-cell ions
   primitive index   ion index
                 1           1
                 2           2
                 3           5
                 4           6
                 5           9
                 6          10
                 7          16
                 8          15

 KPOINTS: EA

Automatic generation of k-mesh.
 Grid dimensions read from file:
 generate k-points for:    7    7    7

 Generating k-lattice:

  Cartesian coordinates                     Fractional coordinates (reciprocal lattice)
     0.022839822  0.014991525  0.000000000     0.142857143 -0.000000000  0.000000000
     0.000000000  0.027320383  0.000000000     0.000000000  0.142857143  0.000000000
     0.006654841  0.012328425  0.021848811     0.000000000  0.000000000  0.142857143

  Length of vectors
     0.027320383  0.027320383  0.025954721

  Shift w.r.t. Gamma in fractional coordinates (k-lattice)
     0.000000000  0.000000000  0.000000000

 Subroutine IBZKPT returns following result:

 Found     40 irreducible k-points:

 Following reciprocal coordinates:
            Coordinates               Weight
  0.000000  0.000000  0.000000      1.000000
  0.142857  0.000000  0.000000      8.000000
  0.285714 -0.000000  0.000000      8.000000
  0.428571  0.000000  0.000000      8.000000
  0.142857  0.142857  0.000000      8.000000
  0.285714  0.142857  0.000000     16.000000
  0.428571  0.142857  0.000000     16.000000
 -0.428571  0.142857  0.000000     16.000000
 -0.285714  0.142857  0.000000     16.000000
 -0.142857  0.142857  0.000000      4.000000
  0.285714  0.285714  0.000000      8.000000
  0.428571  0.285714  0.000000     16.000000
 -0.428571  0.285714  0.000000     16.000000
 -0.285714  0.285714  0.000000      4.000000
  0.428571  0.428571  0.000000      8.000000
 -0.428571  0.428571  0.000000      4.000000
  0.142857  0.142857  0.142857      8.000000
  0.285714  0.142857  0.142857     16.000000
 -0.142857  0.142857  0.142857      4.000000
  0.285714  0.285714  0.142857      8.000000
  0.428571  0.285714  0.142857      8.000000
 -0.285714  0.285714  0.142857      8.000000
 -0.142857  0.285714  0.142857      8.000000
 -0.428571  0.428571  0.142857      8.000000
 -0.285714  0.428571  0.142857     16.000000
 -0.142857  0.428571  0.142857      8.000000
 -0.428571 -0.428571  0.142857      8.000000
 -0.285714 -0.428571  0.142857     16.000000
 -0.142857 -0.428571  0.142857      8.000000
 -0.285714 -0.285714  0.142857      8.000000
 -0.142857 -0.285714  0.142857      8.000000
 -0.142857 -0.142857  0.142857      2.000000
 -0.285714  0.285714  0.285714      4.000000
 -0.428571  0.428571  0.285714      8.000000
 -0.285714  0.428571  0.285714      8.000000
 -0.428571 -0.428571  0.285714      8.000000
 -0.285714 -0.428571  0.285714      8.000000
 -0.285714 -0.285714  0.285714      2.000000
 -0.428571  0.428571  0.428571      4.000000
 -0.428571 -0.428571  0.428571      2.000000

 Following cartesian coordinates:
            Coordinates               Weight
  0.000000  0.000000  0.000000      1.000000
  0.022840  0.014992  0.000000      8.000000
  0.045680  0.029983  0.000000      8.000000
  0.068519  0.044975  0.000000      8.000000
  0.022840  0.042312  0.000000      8.000000
  0.045680  0.057303  0.000000     16.000000
  0.068519  0.072295  0.000000     16.000000
 -0.068519 -0.017654  0.000000     16.000000
 -0.045680 -0.002663  0.000000     16.000000
 -0.022840  0.012329  0.000000      4.000000
  0.045680  0.084624  0.000000      8.000000
  0.068519  0.099615  0.000000     16.000000
 -0.068519  0.009666  0.000000     16.000000
 -0.045680  0.024658  0.000000      4.000000
  0.068519  0.126936  0.000000      8.000000
 -0.068519  0.036987  0.000000      4.000000
  0.029495  0.054640  0.021849      8.000000
  0.052334  0.069632  0.021849     16.000000
 -0.016185  0.024657  0.021849      4.000000
  0.052334  0.096952  0.021849      8.000000
  0.075174  0.111944  0.021849      8.000000
 -0.039025  0.036986  0.021849      8.000000
 -0.016185  0.051978  0.021849      8.000000
 -0.061865  0.049315  0.021849      8.000000
 -0.039025  0.064307  0.021849     16.000000
 -0.016185  0.079298  0.021849      8.000000
 -0.061865 -0.114607  0.021849      8.000000
 -0.039025 -0.099616  0.021849     16.000000
 -0.016185 -0.084624  0.021849      8.000000
 -0.039025 -0.072295  0.021849      8.000000
 -0.016185 -0.057304  0.021849      8.000000
 -0.016185 -0.029983  0.021849      2.000000
 -0.032370  0.049315  0.043698      4.000000
 -0.055210  0.061643  0.043698      8.000000
 -0.032370  0.076635  0.043698      8.000000
 -0.055210 -0.102279  0.043698      8.000000
 -0.032370 -0.087287  0.043698      8.000000
 -0.032370 -0.059967  0.043698      2.000000
 -0.048555  0.073972  0.065546      4.000000
 -0.048555 -0.089950  0.065546      2.000000

 SYSTEM =  routine with relax: pwdword
 POSCAR =  EA45

 Startparameter for this run:
   NWRITE =      2    write-flag & timer
   PREC   = acc       normal or accurate (medium, high low for compatibility)
   ISTART =      0    job   : 0-new  1-cont  2-samecut
   ICHARG =      2    charge: 1-file 2-atom 10-const
   ISPIN  =      1    spin polarized calculation?
   LNONCOLLINEAR =      F non collinear calculations
   LSORBIT =      F    spin-orbit coupling
   INIWAV =      1    electr: 0-lowe 1-rand  2-diag
   LASPH  =      T    aspherical Exc in radial PAW
   METAGGA=      F    non-selfconsistent MetaGGA calc.

 Electronic Relaxation 1
   ENCUT  =  600.0 eV  44.10 Ry    6.64 a.u.  13.06 13.06 13.06*2*pi/ulx,y,z
   ENINI  =  600.0     initial cutoff
[...]
     0.000000000  0.000000000  6.538440000     0.046583890  0.086298975  0.152941680

  length of vectors
     6.538440000  6.538440000  6.538440000     0.191242678  0.191242678  0.181683047

 k-points in units of 2pi/SCALE and weight: EA
   0.00000000  0.00000000  0.00000000       0.003
   0.02283982  0.01499153  0.00000000       0.023
   0.04567964  0.02998305  0.00000000       0.023
   0.06851947  0.04497458  0.00000000       0.023
   0.02283982  0.04231191  0.00000000       0.023
   0.04567964  0.05730343  0.00000000       0.047
   0.06851947  0.07229496  0.00000000       0.047
  -0.06851947 -0.01765419  0.00000000       0.047
  -0.04567964 -0.00266267  0.00000000       0.047
  -0.02283982  0.01232886  0.00000000       0.012
   0.04567964  0.08462382  0.00000000       0.023
   0.06851947  0.09961534  0.00000000       0.047
  -0.06851947  0.00966619  0.00000000       0.047
  -0.04567964  0.02465771  0.00000000       0.012
   0.06851947  0.12693572  0.00000000       0.023
  -0.06851947  0.03698657  0.00000000       0.012
   0.02949466  0.05464033  0.02184881       0.023
   0.05233449  0.06963186  0.02184881       0.047
  -0.01618498  0.02465728  0.02184881       0.012
   0.05233449  0.09695224  0.02184881       0.023
   0.07517431  0.11194377  0.02184881       0.023
  -0.03902480  0.03698614  0.02184881       0.023
  -0.01618498  0.05197766  0.02184881       0.023
  -0.06186463  0.04931500  0.02184881       0.023
  -0.03902480  0.06430652  0.02184881       0.047
  -0.01618498  0.07929805  0.02184881       0.023
  -0.06186463 -0.11460730  0.02184881       0.023
  -0.03902480 -0.09961577  0.02184881       0.047
  -0.01618498 -0.08462425  0.02184881       0.023
  -0.03902480 -0.07229539  0.02184881       0.023
  -0.01618498 -0.05730387  0.02184881       0.023
  -0.01618498 -0.02998348  0.02184881       0.006
  -0.03236996  0.04931456  0.04369762       0.012
  -0.05520978  0.06164342  0.04369762       0.023
  -0.03236996  0.07663495  0.04369762       0.023
  -0.05520978 -0.10227887  0.04369762       0.023
  -0.03236996 -0.08728735  0.04369762       0.023
  -0.03236996 -0.05996697  0.04369762       0.006
  -0.04855494  0.07397185  0.06554643       0.012
  -0.04855494 -0.08995045  0.06554643       0.006

 k-points in reciprocal lattice and weights: EA
   0.00000000  0.00000000  0.00000000       0.003
   0.14285714  0.00000000  0.00000000       0.023
   0.28571429 -0.00000000  0.00000000       0.023
   0.42857143  0.00000000  0.00000000       0.023
   0.14285714  0.14285714  0.00000000       0.023
   0.28571429  0.14285714  0.00000000       0.047
   0.42857143  0.14285714  0.00000000       0.047
  -0.42857143  0.14285714  0.00000000       0.047
  -0.28571429  0.14285714  0.00000000       0.047
  -0.14285714  0.14285714  0.00000000       0.012
   0.28571429  0.28571429  0.00000000       0.023
   0.42857143  0.28571429  0.00000000       0.047
  -0.42857143  0.28571429  0.00000000       0.047
  -0.28571429  0.28571429  0.00000000       0.012
   0.42857143  0.42857143  0.00000000       0.023
  -0.42857143  0.42857143  0.00000000       0.012
   0.14285714  0.14285714  0.14285714       0.023
   0.28571429  0.14285714  0.14285714       0.047
  -0.14285714  0.14285714  0.14285714       0.012
   0.28571429  0.28571429  0.14285714       0.023
   0.42857143  0.28571429  0.14285714       0.023
  -0.28571429  0.28571429  0.14285714       0.023
  -0.14285714  0.28571429  0.14285714       0.023
  -0.42857143  0.42857143  0.14285714       0.023
  -0.28571429  0.42857143  0.14285714       0.047
  -0.14285714  0.42857143  0.14285714       0.023
  -0.42857143 -0.42857143  0.14285714       0.023
  -0.28571429 -0.42857143  0.14285714       0.047
  -0.14285714 -0.42857143  0.14285714       0.023
  -0.28571429 -0.28571429  0.14285714       0.023
  -0.14285714 -0.28571429  0.14285714       0.023
  -0.14285714 -0.14285714  0.14285714       0.006
  -0.28571429  0.28571429  0.28571429       0.012
  -0.42857143  0.42857143  0.28571429       0.023
  -0.28571429  0.42857143  0.28571429       0.023
  -0.42857143 -0.42857143  0.28571429       0.023
  -0.28571429 -0.42857143  0.28571429       0.023
  -0.28571429 -0.28571429  0.28571429       0.006
  -0.42857143  0.42857143  0.42857143       0.012
  -0.42857143 -0.42857143  0.42857143       0.006

 position of ions in fractional coordinates (direct lattice)
   0.50000000  0.00000000  0.00000000
   0.00000000  0.00000000  0.50000000
   0.00000000  0.50000000  0.00000000
   0.50000000  0.50000000  0.50000000
   0.75000000  0.25000000  0.50000000
   0.25000000  0.25000000  0.00000000
   0.25000000  0.75000000  0.50000000
   0.75000000  0.75000000  0.00000000
   0.25000000  0.99967000  0.74967000
   0.75000000  0.00033000  0.25033000
   0.99967000  0.25000000  0.74967000
   0.00033000  0.75000000  0.25033000
   0.25000000  0.50033000  0.25033000
   0.75000000  0.49967000  0.74967000
   0.50033000  0.25000000  0.25033000
   0.49967000  0.75000000  0.74967000

 position of ions in cartesian coordinates  (Angst):
   3.12736986  0.00000000 -0.95255297
   0.00000000  0.00000000  3.26922000
  -1.71608300  2.61447918 -0.95255297
   1.41128686  2.61447918  1.36411405
   3.83301329  1.30723959  1.36411405
   0.70564343  1.30723959 -0.95255297
  -1.01043957  3.92171877  1.36411405
   2.11693029  3.92171877 -2.85765892
  -1.86734845  5.22723281  2.52091857
   4.68992218  0.00172556  0.20730954
   5.39463416  1.30723959  2.52091857
  -2.57206043  3.92171877  0.20730954
  -0.15353068  2.61620474  0.20730954
   2.97610441  2.61275363  2.52091857
   2.27139243  1.30723959  0.20730954
   0.55118130  3.92171877  2.52091857

 k-point   1 :   0.0000 0.0000 0.0000  plane waves:    7067
 k-point   2 :   0.1429 0.0000 0.0000  plane waves:    7127
 k-point   3 :   0.2857-0.0000 0.0000  plane waves:    7134
 k-point   4 :   0.4286 0.0000 0.0000  plane waves:    7136
 k-point   5 :   0.1429 0.1429 0.0000  plane waves:    7138
 k-point   6 :   0.2857 0.1429 0.0000  plane waves:    7141
 k-point   7 :   0.4286 0.1429 0.0000  plane waves:    7136
 k-point   8 :  -0.4286 0.1429 0.0000  plane waves:    7131
 k-point   9 :  -0.2857 0.1429 0.0000  plane waves:    7118
 k-point  10 :  -0.1429 0.1429 0.0000  plane waves:    7120
 k-point  11 :   0.2857 0.2857 0.0000  plane waves:    7127
 k-point  12 :   0.4286 0.2857 0.0000  plane waves:    7130
 k-point  13 :  -0.4286 0.2857 0.0000  plane waves:    7124
 k-point  14 :  -0.2857 0.2857 0.0000  plane waves:    7128
 k-point  15 :   0.4286 0.4286 0.0000  plane waves:    7113
 k-point  16 :  -0.4286 0.4286 0.0000  plane waves:    7114
 k-point  17 :   0.1429 0.1429 0.1429  plane waves:    7127
 k-point  18 :   0.2857 0.1429 0.1429  plane waves:    7126
 k-point  19 :  -0.1429 0.1429 0.1429  plane waves:    7109
 k-point  20 :   0.2857 0.2857 0.1429  plane waves:    7131
 k-point  21 :   0.4286 0.2857 0.1429  plane waves:    7133
 k-point  22 :  -0.2857 0.2857 0.1429  plane waves:    7131
 k-point  23 :  -0.1429 0.2857 0.1429  plane waves:    7132
 k-point  24 :  -0.4286 0.4286 0.1429  plane waves:    7154
 k-point  25 :  -0.2857 0.4286 0.1429  plane waves:    7150
 k-point  26 :  -0.1429 0.4286 0.1429  plane waves:    7139
 k-point  27 :  -0.4286-0.4286 0.1429  plane waves:    7164
 k-point  28 :  -0.2857-0.4286 0.1429  plane waves:    7143
 k-point  29 :  -0.1429-0.4286 0.1429  plane waves:    7163
 k-point  30 :  -0.2857-0.2857 0.1429  plane waves:    7153
 k-point  31 :  -0.1429-0.2857 0.1429  plane waves:    7133
 k-point  32 :  -0.1429-0.1429 0.1429  plane waves:    7138
 k-point  33 :  -0.2857 0.2857 0.2857  plane waves:    7148
 k-point  34 :  -0.4286 0.4286 0.2857  plane waves:    7152
 k-point  35 :  -0.2857 0.4286 0.2857  plane waves:    7143
 k-point  36 :  -0.4286-0.4286 0.2857  plane waves:    7140
 k-point  37 :  -0.2857-0.4286 0.2857  plane waves:    7155
 k-point  38 :  -0.2857-0.2857 0.2857  plane waves:    7150
 k-point  39 :  -0.4286 0.4286 0.4286  plane waves:    7152
 k-point  40 :  -0.4286-0.4286 0.4286  plane waves:    7118

 maximum and minimum number of plane-waves per node :      3600     3530

 maximum number of plane-waves:      7164
 maximum index in each direction:
   IXMAX=   13   IYMAX=   13   IZMAX=   13
   IXMIN=  -13   IYMIN=  -13   IZMIN=  -13

 parallel 3D FFT for wavefunctions:
    minimum data exchange during FFTs selected (reduces bandwidth)
 parallel 3D FFT for charge:
    minimum data exchange during FFTs selected (reduces bandwidth)

 Broyden mixing: mesh for mixing (old mesh)
   NGX = 27   NGY = 27   NGZ = 27
  (NGX  =108   NGY  =108   NGZ  =108)
  gives a total of  19683 points

 initial charge density was supplied:
 charge density of overlapping atoms calculated
 number of electron     100.0000000 magnetization
 keeping initial charge density in first step

 Maximum index for augmentation-charges        20874 (set IRDMAX)

 First call to EWALD:  gamma=   0.296
 Maximum number of real-space cells 3x 3x 3
 Maximum number of reciprocal cells 3x 3x 3

--------------------------------------- Iteration      1(   1)  ---------------------------------------

 eigenvalue-minimisations  :  5280
 total energy-change (2. order) : 0.8389151E+03  (-0.6373963E+04)
 number of electron     100.0000000 magnetization
 augmentation part      100.0000000 magnetization

 Free energy of the ion-electron system (eV)
  alpha Z        PSCENC =       320.59988180
  Ewald energy   TEWEN  =     -6108.68925364
  -Hartree energ DENC   =     -2448.35535818
  -exchange      EXHF   =         0.00000000
  -V(xc)+E(xc)   XCENC  =       315.71215698
  PAW double counting   =      6777.72328542    -6678.88786135
  entropy T*S    EENTRO =        -0.00073543
  eigenvalues    EBANDS =       102.47199527
  atomic energy  EATOM  =      8558.34096249
  free energy    TOTEN  =       838.91507337 eV

  energy without entropy =      838.91580881  energy(sigma->0) =      838.91544109

[...]

 eigenvalue-minimisations  :  5448
 total energy-change (2. order) :-0.9716721E+03  (-0.9442703E+03)
 number of electron     100.0000000 magnetization
 augmentation part      100.0000000 magnetization

[...]

 eigenvalue-minimisations  :     0
 total energy-change (2. order) :-0.3955938E-07  ( 0.5045157E-08)
 number of electron      99.9999994 magnetization
 augmentation part        8.2449049 magnetization

[...]

 eigenvalue-minimisations  :     0
 total energy-change (2. order) :-0.1269109E-07  (-0.2253496E-08)
 number of electron      99.9999994 magnetization
 augmentation part        8.2449033 magnetization

[...]

--------------------------------------- Iteration      1(  34)  ---------------------------------------

 eigenvalue-minimisations  :     0
 total energy-change (2. order) : 0.4201866E-09  (-0.9756433E-09)
 number of electron      99.9999994 magnetization
 augmentation part        8.2449032 magnetization

 Free energy of the ion-electron system (eV)
  alpha Z        PSCENC =       320.59988180
  Ewald energy   TEWEN  =     -6108.68925364
  -Hartree energ DENC   =     -2516.60108437
  -exchange      EXHF   =         0.00000000
  -V(xc)+E(xc)   XCENC  =       333.46248132
  PAW double counting   =     22444.85907233   -22352.03092034
  entropy T*S    EENTRO =        -0.00199780
  eigenvalues    EBANDS =      -827.39303134
  atomic energy  EATOM  =      8558.34096249
  free energy    TOTEN  =      -147.45388955 eV

  energy without entropy =     -147.45189175  energy(sigma->0) =     -147.45289065

  average scaling for gradient   0.8227

 average (electrostatic) potential at core
  the test charge radii are     0.7672  1.0818  0.9892
  (the norm of the test charge is              1.0000)
       1 -26.1728       2 -26.1728       3 -26.1728       4 -26.1728       5 -76.2904
       6 -76.3035       7 -76.2904       8 -76.3035       9 -83.9719      10 -83.9719
      11 -83.9719      12 -83.9719      13 -83.9719      14 -83.9719      15 -83.9719
      16 -83.9719

 E-fermi :   9.1786     XC(G=0): -11.9494     alpha+bet :-16.8931

 Fermi energy:         9.1786144033

 k-point     1 :       0.0000    0.0000    0.0000
  band No.  band energies     occupation
      1     -52.9345      2.00000
      2     -52.9202      2.00000
      3     -52.9181      2.00000
      4     -52.9129      2.00000
      5     -27.5490      2.00000
      6     -27.5489      2.00000
      7     -27.5438      2.00000
      8     -27.5438      2.00000
      9     -27.4276      2.00000
     10     -27.4275      2.00000
     11     -27.4164      2.00000
     12     -27.4164      2.00000
     13     -25.8574      2.00000
     14     -25.8493      2.00000
     15     -25.7738      2.00000
     16     -25.7652      2.00000
     17      -5.2871      2.00000
     18      -2.9953      2.00000
     19      -2.4355      2.00000
     20      -2.4355      2.00000
     21      -1.7651      2.00000
     22      -1.7541      2.00000
     23       0.0237      2.00000
     24       0.0238      2.00000
     25       0.2854      2.00000
     26       1.2718      2.00000
     27       1.3100      2.00000
     28       2.7060      2.00000
     29       2.7060      2.00000
     30       3.0285      2.00000
     31       3.0285      2.00000
     32       3.8108      2.00000
     33       3.8309      2.00000
     34       3.9848      2.00000
     35       4.0950      2.00000
     36       5.0873      2.00000
     37       6.1504      2.00000
     38       6.1652      2.00000
     39       6.2669      2.00000
     40       6.2670      2.00000
     41       6.5593      2.00000
     42       6.6221      2.00000
     43       7.0643      2.00000
     44       7.0643      2.00000
     45       7.8075      2.00000
     46       7.9036      2.00000
     47       7.9036      2.00000
     48       8.1468      2.00000
     49       8.6877      2.00000
     50       8.6877      2.00000
     51       9.0101      2.00000
     52       9.4837      0.00000
     53       9.8329      0.00000
     54       9.8329      0.00000
     55      10.5814      0.00000
     56      10.5972      0.00000
     57      11.3605      0.00000
     58      11.3880      0.00000
     59      11.7784      0.00000
     60      11.7788      0.00000

[...]

 k-point    40 :      -0.4286   -0.4286    0.4286
  band No.  band energies     occupation
      1     -52.9302      2.00000
      2     -52.9245      2.00000
      3     -52.9225      2.00000
      4     -52.9086      2.00000
      5     -27.5529      2.00000
      6     -27.5529      2.00000
      7     -27.5402      2.00000
      8     -27.5401      2.00000
      9     -27.4237      2.00000
     10     -27.4237      2.00000
     11     -27.4202      2.00000
     12     -27.4202      2.00000
     13     -25.8540      2.00000
     14     -25.8447      2.00000
     15     -25.7777      2.00000
     16     -25.7695      2.00000
     17      -4.6791      2.00000
     18      -3.0491      2.00000
     19      -3.0491      2.00000
     20      -2.5999      2.00000
     21      -2.3224      2.00000
     22      -2.3113      2.00000
     23       0.6722      2.00000
     24       0.7109      2.00000
     25       0.7110      2.00000
     26       1.0572      2.00000
     27       1.0947      2.00000
     28       2.9477      2.00000
     29       3.3568      2.00000
     30       3.3569      2.00000
     31       3.6853      2.00000
     32       3.7054      2.00000
     33       4.0613      2.00000
     34       4.1517      2.00000
     35       4.1517      2.00000
     36       4.4099      2.00000
     37       5.0646      2.00000
     38       5.0646      2.00000
     39       5.1997      2.00000
     40       6.4929      2.00000
     41       6.7851      2.00000
     42       6.7851      2.00000
     43       7.1645      2.00000
     44       7.1782      2.00000
     45       7.4509      2.00000
     46       7.4509      2.00000
     47       8.0303      2.00000
     48       8.0303      2.00000
     49       8.4090      2.00000
     50       9.7560      0.00000
     51      10.0821      0.00000
     52      10.5548      0.00000
     53      10.5695      0.00000
     54      10.7742      0.00000
     55      10.9104      0.00000
     56      10.9165      0.00000
     57      11.2434      0.00000
     58      11.2658      0.00000
     59      11.2697      0.00000
     60      11.2972      0.00000

 soft charge-density along one line, spin component           1
         0         1         2         3         4         5         6         7         8         9
 total charge-density along one line

------------------------ aborting loop because EDIFF is reached ----------------------------------------

  FREE ENERGIE OF THE ION-ELECTRON SYSTEM (eV)
  free  energy   TOTEN  =      -147.45388955 eV

  energy  without entropy=     -147.45189175  energy(sigma->0) =     -147.45289065

 writing wavefunctions