 vasp.6.2.0 18Jan21 (build Jan 05 2022 15:41:44) complex

 executed on             LinuxIFC date 2025.05.07  19:15:43

 INCAR:
   SYSTEM = routine with relax: pwdword
   ICHARG = 2
   NPAR = 6
   KPAR = 2
   NCORE = 2
   ADDGRID = T
   PREC = Acc
   ENCUT = 600
   METAGGA = R2SCAN
   LASPH = .TRUE.
   LMIXTAU = .FALSE.
   ALGO = A
   EDIFF = 1E-9
   NELM = 100
   NELMIN = 6
   IALGO = 38
   LREAL = F
   NSW = 0
   ISIF = -1
   ISMEAR = 0
   SIGMA = 0.02
   SYMPREC = 1E-4

 POTCAR:    PAW_PBE B 06Sep2000
 POTCAR:    PAW_PBE Mo_sv 02Feb2006
 POTCAR:    PAW_PBE Si 05Jan2001
|           W    W    AA    RRRRR   N    N  II  N    N   GGGG   !!!           |
|           W    W   A  A   R    R  NN   N  II  NN   N  G    G  !!!           |
|           W    W  A    A  R    R  N N  N  II  N N  N  G       !!!           |
|           W WW W  AAAAAA  RRRRR   N  N N  II  N  N N  G  GGG   !            |
|           WW  WW  A    A  R   R   N   NN  II  N   NN  G    G                |
|           W    W  A    A  R    R  N    N  II  N    N   GGGG   !!!           |
|     For optimal performance we recommend to set                             |
|       NCORE = 2 up to number-of-cores-per-socket                            |
|     This setting can greatly improve the performance of VASP for DFT.       |
|     The default, NCORE=1 might be grossly inefficient on modern             |
|     multi-core architectures or massively parallel machines. Do your        |
|     Unfortunately you need to use the default for GW and RPA                |
|     calculations (for HF NCORE is supported but not extensively tested      |
|     yet).                                                                   |

 POTCAR:    PAW_PBE B 06Sep2000
   VRHFIN =B: s2p1

   TITEL  = PAW_PBE B 06Sep2000
   POMASS =   10.811; ZVAL   =    3.000    mass and valenz
   ENMAX  =  318.614; ENMIN  =  238.960 eV

 POTCAR:    PAW_PBE Mo_sv 02Feb2006
   VRHFIN =Mo: 4p5s4d

   TITEL  = PAW_PBE Mo_sv 02Feb2006
   POMASS =   95.940; ZVAL   =   14.000    mass and valenz
   ENMAX  =  242.676; ENMIN  =  182.007 eV

 POTCAR:    PAW_PBE Si 05Jan2001
   VRHFIN =Si: s2p2

   TITEL  = PAW_PBE Si 05Jan2001
   POMASS =   28.085; ZVAL   =    4.000    mass and valenz
   ENMAX  =  245.345; ENMIN  =  184.009 eV

  PAW_PBE B 06Sep2000                   :
  PAW_PBE Mo_sv 02Feb2006               :
  PAW_PBE Si 05Jan2001                  :

 POSCAR: EA161
  positions in direct lattice

 METAGGA = R2SCA    LMAXTAU =  6    LMIXTAU =  F

 ion  position               nearest neighbor table
   1  0.173  0.673  0.846-  17 1.78  15 2.26   7 2.26   5 2.31   6 2.31
   2  0.327  0.173  0.500-  18 1.78  12 2.26  10 2.26   8 2.31  11 2.31
   3  0.673  0.827  0.500-  18 1.78  12 2.26  10 2.26  16 2.31   9 2.31
   4  0.827  0.327  0.154-  17 1.78  15 2.26   7 2.26  14 2.31  13 2.31
   5  0.356  0.856  0.697-  11 1.44  16 1.44  15 1.56  13 2.03  18 2.29   1 2.31  17 2.40  12 2.77
                            10 2.77  14 3.13
   6  0.841  0.341  0.697-   8 1.44   9 1.44   7 1.56  14 2.03  18 2.29   1 2.31  17 2.40  10 2.77
                            12 2.77  13 3.13
   7  0.000  0.500  0.000-   6 1.56  13 1.56   1 2.26   4 2.26  11 2.77  16 2.77   8 2.77   9 2.77

   8  0.659  0.356  0.500-   6 1.44  14 1.44  12 1.56   9 2.03  17 2.29   2 2.31  18 2.40   7 2.77
                            15 2.77  16 3.13
   9  0.856  0.159  0.500-   6 1.44  14 1.44  10 1.56   8 2.03  17 2.29   3 2.31  18 2.40   7 2.77
                            15 2.77  11 3.13
  10  0.000  0.000  0.500-   9 1.56  11 1.56   2 2.26   3 2.26   6 2.77  13 2.77   5 2.77  14 2.77

  11  0.144  0.841  0.500-  13 1.44   5 1.44  10 1.56  16 2.03  17 2.29   2 2.31  18 2.40   7 2.77
                            15 2.77   9 3.13
  12  0.500  0.500  0.500-   8 1.56  16 1.56   2 2.26   3 2.26  13 2.77   6 2.77  14 2.77   5 2.77

  13  0.159  0.659  0.303-  11 1.44  16 1.44   7 1.56   5 2.03  18 2.29   4 2.31  17 2.40  10 2.77
                            12 2.77   6 3.13
  14  0.644  0.144  0.303-   8 1.44   9 1.44  15 1.56   6 2.03  18 2.29   4 2.31  17 2.40  12 2.77
                            10 2.77   5 3.13
  15  0.500  0.000  0.000-   5 1.56  14 1.56   1 2.26   4 2.26   9 2.77   8 2.77  11 2.77  16 2.77

  16  0.341  0.644  0.500-  13 1.44   5 1.44  12 1.56  11 2.03  17 2.29   3 2.31  18 2.40   7 2.77
                            15 2.77   8 3.13
  17  0.000  0.500  0.500-   1 1.78   4 1.78   8 2.29   9 2.29  11 2.29  16 2.29  13 2.40   6 2.40
                            14 2.40   5 2.40
  18  0.500  0.000  0.500-   2 1.78   3 1.78   5 2.29  14 2.29  13 2.29   6 2.29  11 2.40   8 2.40
                             9 2.40  16 2.40

  LATTYP: Found a body centered tetragonal cell.
 ALAT       =     7.2913244054
 C/A-ratio  =     1.1597442233

  Lattice vectors:

 A1 = (   6.1049149463,   0.0000000000,  -2.6810141228)
 A2 = (  -2.6033267745,   5.5220174037,  -2.6810141228)
 A3 = (   0.0000000000,   0.0000000000,   6.6676700000)

Analysis of symmetry for initial positions (statically):
 Subroutine PRICEL returns:
 Original cell was already a primitive cell.

 Routine SETGRP: Setting up the symmetry group for a
 body centered tetragonal supercell.

 Subroutine GETGRP returns: Found 16 space group operations
 (whereof  8 operations were pure point group operations)
 out of a pool of 16 trial point group operations.

The static configuration has the point symmetry C_4h.
 The point group associated with its full space group is D_4h.

Analysis of symmetry for dynamics (positions and initial velocities):
 Subroutine PRICEL returns:
 Original cell was already a primitive cell.

 Routine SETGRP: Setting up the symmetry group for a
 body centered tetragonal supercell.

 Subroutine GETGRP returns: Found 16 space group operations
 (whereof  8 operations were pure point group operations)
 out of a pool of 16 trial point group operations.

The dynamic configuration has the point symmetry C_4h.
 The point group associated with its full space group is D_4h.

 Subroutine INISYM returns: Found 16 space group operations
 (whereof  8 operations are pure point group operations),
 and found     1 'primitive' translations

                                     Primitive cell

  volume of cell :     224.7768

  direct lattice vectors                    reciprocal lattice vectors
     6.104914946  0.000000000 -2.681014123     0.163802446  0.077223823  0.000000000
    -2.603326775  5.522017404 -2.681014123     0.000000000  0.181093236  0.000000000
     0.000000000  0.000000000  6.667670000     0.065863588  0.103867120  0.149977428

  length of vectors
     6.667670000  6.667670000  6.667670000     0.181093236  0.181093236  0.193957779

  position of ions in fractional coordinates (direct lattice)
     0.173030000  0.673030000  0.846050000
     0.326970000  0.173030000  0.500000000
     0.673030000  0.826970000  0.500000000
     0.826970000  0.326970000  0.153950000
     0.355550000  0.855550000  0.696990000
     0.841440000  0.341440000  0.696990000
     1.000000000  0.500000000  0.000000000
     0.658560000  0.355550000  0.500000000
     0.855550000  0.158560000  0.500000000
     0.000000000  0.000000000  0.500000000
     0.144450000  0.841440000  0.500000000
     0.500000000  0.500000000  0.500000000
     0.158560000  0.658560000  0.303010000
     0.644450000  0.144450000  0.303010000
     0.500000000  0.000000000  0.000000000
     0.341440000  0.644450000  0.500000000
     1.000000000  0.500000000  0.500000000
     0.500000000  0.000000000  0.500000000

  ion indices of the primitive-cell ions
   primitive index   ion index
                 1           1
                 2           2
                 3           3
                 4           4
                 5           5
                 6           6
                 7           7
                 8           8
                 9           9
                10          10
                11          11
                12          12
                13          13
                14          14
                15          15
                16          16
                17          17
                18          18

 KPOINTS: EA

Automatic generation of k-mesh.
 Grid dimensions read from file:
 generate k-points for:    7    7    7

 Generating k-lattice:

  Cartesian coordinates                     Fractional coordinates (reciprocal lattice)
     0.023400349  0.011031975  0.000000000     0.142857143  0.000000000  0.000000000
     0.000000000  0.025870462  0.000000000     0.000000000  0.142857143  0.000000000
     0.009409084  0.014838160  0.021425347     0.000000000  0.000000000  0.142857143

  Length of vectors
     0.025870462  0.025870462  0.027708254

  Shift w.r.t. Gamma in fractional coordinates (k-lattice)
     0.000000000  0.000000000  0.000000000

 Subroutine IBZKPT returns following result:

 Found     40 irreducible k-points:

 Following reciprocal coordinates:
            Coordinates               Weight
  0.000000  0.000000  0.000000      1.000000
  0.142857  0.000000  0.000000      8.000000
  0.285714 -0.000000  0.000000      8.000000
  0.428571  0.000000  0.000000      8.000000
  0.142857  0.142857  0.000000      8.000000
  0.285714  0.142857  0.000000     16.000000
  0.428571  0.142857  0.000000     16.000000
 -0.428571  0.142857  0.000000     16.000000
 -0.285714  0.142857  0.000000     16.000000
 -0.142857  0.142857  0.000000      4.000000
  0.285714  0.285714  0.000000      8.000000
  0.428571  0.285714  0.000000     16.000000
 -0.428571  0.285714  0.000000     16.000000
 -0.285714  0.285714  0.000000      4.000000
  0.428571  0.428571  0.000000      8.000000
 -0.428571  0.428571  0.000000      4.000000
  0.142857  0.142857  0.142857      8.000000
  0.285714  0.142857  0.142857     16.000000
 -0.142857  0.142857  0.142857      4.000000
  0.285714  0.285714  0.142857      8.000000
  0.428571  0.285714  0.142857      8.000000
 -0.285714  0.285714  0.142857      8.000000
 -0.142857  0.285714  0.142857      8.000000
 -0.428571  0.428571  0.142857      8.000000
 -0.285714  0.428571  0.142857     16.000000
 -0.142857  0.428571  0.142857      8.000000
 -0.428571 -0.428571  0.142857      8.000000
 -0.285714 -0.428571  0.142857     16.000000
 -0.142857 -0.428571  0.142857      8.000000
 -0.285714 -0.285714  0.142857      8.000000
 -0.142857 -0.285714  0.142857      8.000000
 -0.142857 -0.142857  0.142857      2.000000
 -0.285714  0.285714  0.285714      4.000000
 -0.428571  0.428571  0.285714      8.000000
 -0.285714  0.428571  0.285714      8.000000
 -0.428571 -0.428571  0.285714      8.000000
 -0.285714 -0.428571  0.285714      8.000000
 -0.285714 -0.285714  0.285714      2.000000
 -0.428571  0.428571  0.428571      4.000000
 -0.428571 -0.428571  0.428571      2.000000

 Following cartesian coordinates:
            Coordinates               Weight
  0.000000  0.000000  0.000000      1.000000
  0.023400  0.011032  0.000000      8.000000
  0.046801  0.022064  0.000000      8.000000
  0.070201  0.033096  0.000000      8.000000
  0.023400  0.036902  0.000000      8.000000
  0.046801  0.047934  0.000000     16.000000
  0.070201  0.058966  0.000000     16.000000
[...]
   0.07961013  0.09967501  0.02142535       0.023
  -0.03739161  0.04451514  0.02142535       0.023
  -0.01399127  0.05554711  0.02142535       0.023
  -0.06079196  0.05935362  0.02142535       0.023
  -0.03739161  0.07038560  0.02142535       0.047
  -0.01399127  0.08141757  0.02142535       0.023
  -0.06079196 -0.09586915  0.02142535       0.023
  -0.03739161 -0.08483718  0.02142535       0.047
  -0.01399127 -0.07380520  0.02142535       0.023
  -0.03739161 -0.05896671  0.02142535       0.023
  -0.01399127 -0.04793474  0.02142535       0.023
  -0.01399127 -0.02206428  0.02142535       0.006
  -0.02798253  0.05935330  0.04285069       0.012
  -0.05138288  0.07419178  0.04285069       0.023
  -0.02798253  0.08522376  0.04285069       0.023
  -0.05138288 -0.08103099  0.04285069       0.023
  -0.02798253 -0.06999902  0.04285069       0.023
  -0.02798253 -0.04412855  0.04285069       0.006
  -0.04197380  0.08902994  0.06427604       0.012
  -0.04197380 -0.06619283  0.06427604       0.006

 k-points in reciprocal lattice and weights: EA
   0.00000000  0.00000000  0.00000000       0.003
   0.14285714  0.00000000  0.00000000       0.023
   0.28571429 -0.00000000  0.00000000       0.023
   0.42857143  0.00000000  0.00000000       0.023
   0.14285714  0.14285714  0.00000000       0.023
   0.28571429  0.14285714  0.00000000       0.047
   0.42857143  0.14285714  0.00000000       0.047
  -0.42857143  0.14285714  0.00000000       0.047
  -0.28571429  0.14285714  0.00000000       0.047
  -0.14285714  0.14285714  0.00000000       0.012
   0.28571429  0.28571429  0.00000000       0.023
   0.42857143  0.28571429  0.00000000       0.047
  -0.42857143  0.28571429  0.00000000       0.047
  -0.28571429  0.28571429  0.00000000       0.012
   0.42857143  0.42857143  0.00000000       0.023
  -0.42857143  0.42857143  0.00000000       0.012
   0.14285714  0.14285714  0.14285714       0.023
   0.28571429  0.14285714  0.14285714       0.047
  -0.14285714  0.14285714  0.14285714       0.012
   0.28571429  0.28571429  0.14285714       0.023
   0.42857143  0.28571429  0.14285714       0.023
  -0.28571429  0.28571429  0.14285714       0.023
  -0.14285714  0.28571429  0.14285714       0.023
  -0.42857143  0.42857143  0.14285714       0.023
  -0.28571429  0.42857143  0.14285714       0.047
  -0.14285714  0.42857143  0.14285714       0.023
  -0.42857143 -0.42857143  0.14285714       0.023
  -0.28571429 -0.42857143  0.14285714       0.047
  -0.14285714 -0.42857143  0.14285714       0.023
  -0.28571429 -0.28571429  0.14285714       0.023
  -0.14285714 -0.28571429  0.14285714       0.023
  -0.14285714 -0.14285714  0.14285714       0.006
  -0.28571429  0.28571429  0.28571429       0.012
  -0.42857143  0.42857143  0.28571429       0.023
  -0.28571429  0.42857143  0.28571429       0.023
  -0.42857143 -0.42857143  0.28571429       0.023
  -0.28571429 -0.42857143  0.28571429       0.023
  -0.28571429 -0.28571429  0.28571429       0.006
  -0.42857143  0.42857143  0.42857143       0.012
  -0.42857143 -0.42857143  0.42857143       0.006

 position of ions in fractional coordinates (direct lattice)
   0.17303000  0.67303000  0.84605000
   0.32697000  0.17303000  0.50000000
   0.67303000  0.82697000  0.50000000
   0.82697000  0.32697000  0.15395000
   0.35555000  0.85555000  0.69699000
   0.84144000  0.34144000  0.69699000
   0.00000000  0.50000000  0.00000000
   0.65856000  0.35555000  0.50000000
   0.85555000  0.15856000  0.50000000
   0.00000000  0.00000000  0.50000000
   0.14445000  0.84144000  0.50000000
   0.50000000  0.50000000  0.50000000
   0.15856000  0.65856000  0.30301000
   0.64445000  0.14445000  0.30301000
   0.50000000  0.00000000  0.00000000
   0.34144000  0.64445000  0.50000000
   0.00000000  0.50000000  0.50000000
   0.50000000  0.00000000  0.50000000

 position of ions in cartesian coordinates  (Angst):
  -0.69578359  3.71648337  3.37288339
   1.54567041  0.95547467  1.99332794
   1.95591776  4.56654273 -0.68768618
   4.19737176  1.80553403 -2.06724164
  -0.05667371  4.72436199  1.40032311
   4.24803974  1.88543762  1.47598133
  -1.30166339  2.76100870 -1.34050706
   3.09483995  1.96335329  0.61499177
   4.81027649  0.87557108  0.61499177
   0.00000000  0.00000000  3.33383500
  -1.30868832  4.64644632  0.69064999
   1.75079409  2.76100870  0.65282088
  -0.74645157  3.63657978 -0.17033957
   3.55826188  0.79765541 -0.09468135
   3.05245747  0.00000000 -1.34050706
   0.40674822  3.55866412  0.69064999
  -1.30166339  2.76100870  1.99332794
   3.05245747  0.00000000  1.99332794

 k-point   1 :   0.0000 0.0000 0.0000  plane waves:    7581
 k-point   2 :   0.1429 0.0000 0.0000  plane waves:    7527
 k-point   3 :   0.2857-0.0000 0.0000  plane waves:    7500
 k-point   4 :   0.4286 0.0000 0.0000  plane waves:    7497
 k-point   5 :   0.1429 0.1429 0.0000  plane waves:    7506
 k-point   6 :   0.2857 0.1429 0.0000  plane waves:    7504
 k-point   7 :   0.4286 0.1429 0.0000  plane waves:    7497
 k-point   8 :  -0.4286 0.1429 0.0000  plane waves:    7498
 k-point   9 :  -0.2857 0.1429 0.0000  plane waves:    7501
 k-point  10 :  -0.1429 0.1429 0.0000  plane waves:    7539
 k-point  11 :   0.2857 0.2857 0.0000  plane waves:    7502
 k-point  12 :   0.4286 0.2857 0.0000  plane waves:    7504
 k-point  13 :  -0.4286 0.2857 0.0000  plane waves:    7495
 k-point  14 :  -0.2857 0.2857 0.0000  plane waves:    7497
 k-point  15 :   0.4286 0.4286 0.0000  plane waves:    7496
 k-point  16 :  -0.4286 0.4286 0.0000  plane waves:    7484
 k-point  17 :   0.1429 0.1429 0.1429  plane waves:    7496
 k-point  18 :   0.2857 0.1429 0.1429  plane waves:    7513
 k-point  19 :  -0.1429 0.1429 0.1429  plane waves:    7507
 k-point  20 :   0.2857 0.2857 0.1429  plane waves:    7498
 k-point  21 :   0.4286 0.2857 0.1429  plane waves:    7498
 k-point  22 :  -0.2857 0.2857 0.1429  plane waves:    7490
 k-point  23 :  -0.1429 0.2857 0.1429  plane waves:    7488
 k-point  24 :  -0.4286 0.4286 0.1429  plane waves:    7506
 k-point  25 :  -0.2857 0.4286 0.1429  plane waves:    7489
 k-point  26 :  -0.1429 0.4286 0.1429  plane waves:    7486
 k-point  27 :  -0.4286-0.4286 0.1429  plane waves:    7509
 k-point  28 :  -0.2857-0.4286 0.1429  plane waves:    7505
 k-point  29 :  -0.1429-0.4286 0.1429  plane waves:    7502
 k-point  30 :  -0.2857-0.2857 0.1429  plane waves:    7505
 k-point  31 :  -0.1429-0.2857 0.1429  plane waves:    7503
 k-point  32 :  -0.1429-0.1429 0.1429  plane waves:    7513
 k-point  33 :  -0.2857 0.2857 0.2857  plane waves:    7498
 k-point  34 :  -0.4286 0.4286 0.2857  plane waves:    7492
 k-point  35 :  -0.2857 0.4286 0.2857  plane waves:    7505
 k-point  36 :  -0.4286-0.4286 0.2857  plane waves:    7495
 k-point  37 :  -0.2857-0.4286 0.2857  plane waves:    7506
 k-point  38 :  -0.2857-0.2857 0.2857  plane waves:    7501
 k-point  39 :  -0.4286 0.4286 0.4286  plane waves:    7502
 k-point  40 :  -0.4286-0.4286 0.4286  plane waves:    7497

 maximum and minimum number of plane-waves per node :      3793     3716

 maximum number of plane-waves:      7581
 maximum index in each direction:
   IXMAX=   13   IYMAX=   13   IZMAX=   13
   IXMIN=  -13   IYMIN=  -13   IZMIN=  -13

 parallel 3D FFT for wavefunctions:
    minimum data exchange during FFTs selected (reduces bandwidth)
 parallel 3D FFT for charge:
    minimum data exchange during FFTs selected (reduces bandwidth)

 Broyden mixing: mesh for mixing (old mesh)
   NGX = 27   NGY = 27   NGZ = 27
  (NGX  =108   NGY  =108   NGZ  =108)
  gives a total of  19683 points

 initial charge density was supplied:
 charge density of overlapping atoms calculated
 number of electron     188.0000000 magnetization
 keeping initial charge density in first step

 Maximum index for augmentation-charges        20009 (set IRDMAX)

 First call to EWALD:  gamma=   0.292
 Maximum number of real-space cells 3x 3x 3
 Maximum number of reciprocal cells 3x 3x 3

--------------------------------------- Iteration      1(   1)  ---------------------------------------

 eigenvalue-minimisations  :  9552
 total energy-change (2. order) : 0.3167122E+04  (-0.1446172E+05)
 number of electron     188.0000000 magnetization
 augmentation part      188.0000000 magnetization

 Free energy of the ion-electron system (eV)
  alpha Z        PSCENC =      1411.94970908
  Ewald energy   TEWEN  =     -9236.09733219
  -Hartree energ DENC   =    -12350.69439066
  -exchange      EXHF   =         0.00000000
  -V(xc)+E(xc)   XCENC  =      1022.72273618
  PAW double counting   =     18167.42904368   -18107.57746203
  entropy T*S    EENTRO =        -0.00092861
  eigenvalues    EBANDS =      -578.81155017
  atomic energy  EATOM  =     22838.20177132
  free energy    TOTEN  =      3167.12159661 eV

  energy without entropy =     3167.12252522  energy(sigma->0) =     3167.12206091

[...]

 eigenvalue-minimisations  :  9924
 total energy-change (2. order) :-0.3060245E+04  (-0.2988172E+04)
 number of electron     188.0000000 magnetization
 augmentation part      188.0000000 magnetization

[...]

 eigenvalue-minimisations  :     0
 total energy-change (2. order) :-0.4371395E-07  ( 0.1114010E-06)
 number of electron     188.0000005 magnetization
 augmentation part       35.7457140 magnetization

[...]

 eigenvalue-minimisations  :     0
 total energy-change (2. order) : 0.2328306E-08  (-0.3258326E-10)
 number of electron     188.0000005 magnetization
 augmentation part       35.7456907 magnetization

[...]

--------------------------------------- Iteration      1(  40)  ---------------------------------------

 eigenvalue-minimisations  :     0
 total energy-change (2. order) :-0.4656613E-09  (-0.2613042E-10)
 number of electron     188.0000005 magnetization
 augmentation part       35.7456905 magnetization

 Free energy of the ion-electron system (eV)
  alpha Z        PSCENC =      1411.94970908
  Ewald energy   TEWEN  =     -9236.09733219
  -Hartree energ DENC   =    -13117.00340158
  -exchange      EXHF   =         0.00000000
  -V(xc)+E(xc)   XCENC  =      1084.47914237
  PAW double counting   =    253459.29336618  -253378.17959763
  entropy T*S    EENTRO =        -0.00178110
  eigenvalues    EBANDS =     -2979.33756144
  atomic energy  EATOM  =     22838.20177132
  free energy    TOTEN  =        83.30431500 eV

  energy without entropy =       83.30609610  energy(sigma->0) =       83.30520555

  average scaling for gradient   0.8969

 average (electrostatic) potential at core
  the test charge radii are     0.7672  1.0818  0.9892
  (the norm of the test charge is              1.0000)
       1 -22.1788       2 -22.1789       3 -22.1789       4 -22.1788       5 -79.7941
       6 -79.7935       7 -75.8866       8 -79.7943       9 -79.7943      10 -75.8882
      11 -79.7943      12 -75.8882      13 -79.7935      14 -79.7941      15 -75.8877
      16 -79.7943      17 -80.7044      18 -80.7030

 E-fermi :  11.8205     XC(G=0): -12.8401     alpha+bet :-20.7894

 Fermi energy:        11.8204708822

 k-point     1 :       0.0000    0.0000    0.0000
  band No.  band energies     occupation
      1     -69.7844      2.00000
      2     -69.7274      2.00000
      3     -61.3652      2.00000
      4     -61.3648      2.00000
      5     -60.6240      2.00000
      6     -60.6238      2.00000
      7     -57.1702      2.00000
      8     -55.6015      2.00000
      9     -53.8628      2.00000
     10     -53.8620      2.00000
     11     -51.6171      2.00000
     12     -45.8514      2.00000
     13     -45.2691      2.00000
     14     -42.8620      2.00000
     15     -42.8066      2.00000
     16     -42.5079      2.00000
     17     -42.5070      2.00000
     18     -37.3999      2.00000
     19     -35.6960      2.00000
     20     -35.3600      2.00000
     21     -33.8302      2.00000
     22     -33.8299      2.00000
     23     -31.1718      2.00000
     24     -30.1708      2.00000
     25     -30.1703      2.00000
     26     -29.0483      2.00000
     27     -29.0480      2.00000
     28     -27.5543      2.00000
     29     -27.5538      2.00000
     30     -27.3272      2.00000
     31     -26.4338      2.00000
     32     -25.5664      2.00000
     33     -25.4404      2.00000
     34     -24.5064      2.00000
     35     -24.5057      2.00000
     36     -23.8814      2.00000
     37     -23.4110      2.00000
     38     -22.9560      2.00000
     39     -22.9559      2.00000
     40     -22.6418      2.00000
     41     -22.6418      2.00000
     42     -20.8614      2.00000
     43     -17.4509      2.00000
     44     -17.4168      2.00000
     45     -17.0097      2.00000
     46     -17.0095      2.00000
     47     -15.1172      2.00000
     48      -9.0246      2.00000
     49      -7.4376      2.00000
     50      -5.0078      2.00000
     51      -4.6602      2.00000
     52      -2.9589      2.00000
     53      -2.5105      2.00000
     54      -1.1611      2.00000
     55      -1.0030      2.00000
     56      -0.5446      2.00000
     57      -0.3496      2.00000
     58      -0.1023      2.00000
     59      -0.0955      2.00000
     60      -0.0950      2.00000
[...]
    100      13.1158      0.00000
    101      13.1159      0.00000
    102      13.2968      0.00000
    103      13.9881      0.00000
    104      14.2339      0.00000
    105      14.2943      0.00000
    106      14.2943      0.00000
    107      14.5849      0.00000
    108      14.5849      0.00000
    109      15.0888      0.00000
    110      15.1839      0.00000
    111      16.2383      0.00000
    112      17.3973      0.00000
    113      17.8493      0.00000
    114      18.4755      0.00000

[...]

 k-point    40 :      -0.4286   -0.4286    0.4286
  band No.  band energies     occupation
      1     -69.7840      2.00000
      2     -69.7278      2.00000
      3     -61.3652      2.00000
      4     -61.3648      2.00000
      5     -60.6240      2.00000
      6     -60.6237      2.00000
      7     -57.1701      2.00000
      8     -55.6014      2.00000
      9     -53.8628      2.00000
     10     -53.8621      2.00000
     11     -51.6173      2.00000
     12     -45.8515      2.00000
     13     -45.2686      2.00000
     14     -42.8622      2.00000
     15     -42.8063      2.00000
     16     -42.5078      2.00000
     17     -42.5069      2.00000
     18     -37.3992      2.00000
     19     -35.7165      2.00000
     20     -35.3385      2.00000
     21     -33.8306      2.00000
     22     -33.8303      2.00000
     23     -31.1727      2.00000
     24     -30.1631      2.00000
     25     -30.1625      2.00000
     26     -29.0558      2.00000
     27     -29.0555      2.00000
     28     -27.5531      2.00000
     29     -27.5526      2.00000
     30     -27.3358      2.00000
     31     -26.4347      2.00000
     32     -25.5674      2.00000
     33     -25.4512      2.00000
     34     -24.4986      2.00000
     35     -24.4979      2.00000
     36     -23.8835      2.00000
     37     -23.4017      2.00000
     38     -22.9547      2.00000
     39     -22.9546      2.00000
     40     -22.6423      2.00000
     41     -22.6423      2.00000
     42     -20.8713      2.00000
     43     -17.4496      2.00000
     44     -17.4160      2.00000
     45     -17.0086      2.00000
     46     -17.0083      2.00000
     47     -15.1177      2.00000
     48      -9.0275      2.00000
     49      -7.3992      2.00000
     50      -4.9438      2.00000
     51      -4.2941      2.00000
     52      -2.9418      2.00000
     53      -2.3811      2.00000
     54      -1.7607      2.00000
     55      -1.3128      2.00000
     56      -0.7898      2.00000
     57      -0.5147      2.00000
     58      -0.4067      2.00000
     59      -0.4064      2.00000
     60       0.2782      2.00000
[...]
    100      12.8678      0.00000
    101      13.2532      0.00000
    102      13.2534      0.00000
    103      13.8393      0.00000
    104      14.6868      0.00000
    105      15.0736      0.00000
    106      15.1312      0.00000
    107      15.1315      0.00000
    108      15.6106      0.00000
    109      15.6527      0.00000
    110      15.6530      0.00000
    111      16.1134      0.00000
    112      17.8072      0.00000
    113      17.8539      0.00000
    114      18.5352      0.00000

 soft charge-density along one line, spin component           1
         0         1         2         3         4         5         6         7         8         9
 total charge-density along one line

------------------------ aborting loop because EDIFF is reached ----------------------------------------

  FREE ENERGIE OF THE ION-ELECTRON SYSTEM (eV)
  free  energy   TOTEN  =        83.30431500 eV

  energy  without entropy=       83.30609610  energy(sigma->0) =       83.30520555

 writing wavefunctions