 vasp.6.2.0 18Jan21 (build Jan 05 2022 15:41:44) complex

 executed on             LinuxIFC date 2025.05.07  20:17:38

 INCAR:
   SYSTEM = routine with relax: pwdword
   ICHARG = 2
   NPAR = 6
   KPAR = 2
   NCORE = 2
   ADDGRID = T
   PREC = Acc
   ENCUT = 600
   METAGGA = R2SCAN
   LASPH = .TRUE.
   LMIXTAU = .FALSE.
   ALGO = A
   EDIFF = 1E-9
   NELM = 100
   NELMIN = 6
   IALGO = 38
   LREAL = F
   NSW = 0
   ISIF = -1
   ISMEAR = 0
   SIGMA = 0.02

 POTCAR:    PAW_PBE B 06Sep2000
 POTCAR:    PAW_PBE Mo_sv 02Feb2006
 POTCAR:    PAW_PBE Si 05Jan2001
|           W    W    AA    RRRRR   N    N  II  N    N   GGGG   !!!           |
|           W    W   A  A   R    R  NN   N  II  NN   N  G    G  !!!           |
|           W    W  A    A  R    R  N N  N  II  N N  N  G       !!!           |
|           W WW W  AAAAAA  RRRRR   N  N N  II  N  N N  G  GGG   !            |
|           WW  WW  A    A  R   R   N   NN  II  N   NN  G    G                |
|           W    W  A    A  R    R  N    N  II  N    N   GGGG   !!!           |
|     For optimal performance we recommend to set                             |
|       NCORE = 2 up to number-of-cores-per-socket                            |
|     This setting can greatly improve the performance of VASP for DFT.       |
|     The default, NCORE=1 might be grossly inefficient on modern             |
|     multi-core architectures or massively parallel machines. Do your        |
|     Unfortunately you need to use the default for GW and RPA                |
|     calculations (for HF NCORE is supported but not extensively tested      |
|     yet).                                                                   |

 POTCAR:    PAW_PBE B 06Sep2000
   VRHFIN =B: s2p1

   TITEL  = PAW_PBE B 06Sep2000
   POMASS =   10.811; ZVAL   =    3.000    mass and valenz
   ENMAX  =  318.614; ENMIN  =  238.960 eV

 POTCAR:    PAW_PBE Mo_sv 02Feb2006
   VRHFIN =Mo: 4p5s4d

   TITEL  = PAW_PBE Mo_sv 02Feb2006
   POMASS =   95.940; ZVAL   =   14.000    mass and valenz
   ENMAX  =  242.676; ENMIN  =  182.007 eV

 POTCAR:    PAW_PBE Si 05Jan2001
   VRHFIN =Si: s2p2

   TITEL  = PAW_PBE Si 05Jan2001
   POMASS =   28.085; ZVAL   =    4.000    mass and valenz
   ENMAX  =  245.345; ENMIN  =  184.009 eV

  PAW_PBE B 06Sep2000                   :
  PAW_PBE Mo_sv 02Feb2006               :
  PAW_PBE Si 05Jan2001                  :

 POSCAR: EA214
  positions in direct lattice

 METAGGA = R2SCA    LMAXTAU =  6    LMIXTAU =  F

 ion  position               nearest neighbor table
   1  0.250  0.250  0.000-   4 2.18   6 2.18   8 2.35  10 2.35   9 2.35   7 2.35
   2  0.750  0.750  0.000-   4 2.18   6 2.18  10 2.35   8 2.35   7 2.35   9 2.35
   3  0.750  0.250  0.500-   7 2.35   9 2.35  10 2.35   8 2.35
   4  0.000  0.000  0.000-   1 2.18   2 2.18   8 3.21   8 3.21   9 3.21  10 3.21  10 3.21   7 3.21
                             9 3.21   7 3.21
   5  0.250  0.750  0.500-   9 2.35   7 2.35  10 2.35   8 2.35
   6  0.500  0.500  0.000-   1 2.18   2 2.18  10 3.21  10 3.21   9 3.21   7 3.21   8 3.21   9 3.21
                             7 3.21   8 3.21
   7  0.000  0.500  0.000-   5 2.35   3 2.35   1 2.35   2 2.35   6 3.21   4 3.21   4 3.21   6 3.21

   8  0.500  0.500  0.500-   2 2.35   1 2.35   5 2.35   3 2.35   4 3.21   4 3.21   6 3.21   6 3.21

[...]

  10  0.000  0.000  0.500-   1 2.35   2 2.35   5 2.35   3 2.35   6 3.21   6 3.21   4 3.21   4 3.21

  Warning from LATTYP: Got some problem with cell dimensions!
  Tried to take original basis but could not verify dimensions!
  LATTYP: Found a base centered monoclinic cell.
 ALAT       =     8.7350725708
 B/A-ratio  =     1.0756574605
 C/A-ratio  =     0.7343329863
 COS(beta)  =    -0.6808799348

  Lattice vectors:

 A1 = (  -5.6835505961,   0.0000000000,   2.9738150637)
 A2 = (   2.0830558003,  -5.2880644769,   2.9738150637)
 A3 = (   3.6004947958,   5.2880644769,   0.4669098727)

Analysis of symmetry for initial positions (statically):
 Subroutine PRICEL returns following result:

  LATTYP: Found a simple monoclinic cell.
 ALAT       =     4.3675362854
 B/A-ratio  =     1.0756574605
 C/A-ratio  =     1.0756436936
 COS(beta)  =    -0.0000137669

[...]

   2 primitive cells build up your supercell.

 Routine SETGRP: Setting up the symmetry group for a
 base centered monoclinic supercell.

 Subroutine GETGRP returns: Found  4 space group operations
 (whereof  4 operations were pure point group operations)
 out of a pool of  4 trial point group operations.

The static configuration has the point symmetry C_2h.

Analysis of symmetry for dynamics (positions and initial velocities):
 Subroutine PRICEL returns following result:

  LATTYP: Found a simple monoclinic cell.
 ALAT       =     4.3675362854
 B/A-ratio  =     1.0756574605
 C/A-ratio  =     1.0756436936
 COS(beta)  =    -0.0000137669

  Lattice vectors:

 A1 = (   1.8002473979,   2.6440322384,  -2.9738150637)
 A2 = (  -3.8833031982,   2.6440322384,   0.0000000000)
 A3 = (   1.8002473979,   2.6440322384,   3.4407249363)

   2 primitive cells build up your supercell.

 Routine SETGRP: Setting up the symmetry group for a
 base centered monoclinic supercell.

 Subroutine GETGRP returns: Found  4 space group operations
 (whereof  4 operations were pure point group operations)
 out of a pool of  4 trial point group operations.

The dynamic configuration has the point symmetry C_2h.

 Subroutine INISYM returns: Found  4 space group operations
 (whereof  4 operations are pure point group operations),
 and found     2 'primitive' translations

                                     Primitive cell

  volume of cell :      96.3944

  direct lattice vectors                    reciprocal lattice vectors
     1.800247398  2.644032238 -2.973815064     0.094376682  0.138611499 -0.155895824
    -3.883303198  2.644032238  0.000000000    -0.175946353  0.119796937  0.000000000
     1.800247398  2.644032238  3.440724936     0.081569671  0.119801778  0.155895824

  length of vectors
     4.367536285  4.697972989  4.697912862     0.228962036  0.212857759  0.212860483

  position of ions in fractional coordinates (direct lattice)
     0.500000000  1.000000000  0.000000000
     0.500000000  0.500000000  0.500000000
     0.000000000  0.000000000  0.000000000
     0.500000000  0.500000000  0.000000000
     0.500000000  1.000000000  0.500000000

  ion indices of the primitive-cell ions
   primitive index   ion index
                 1           1
                 2           3
                 3           4
                 4           7
                 5           8

 KPOINTS: EA

Automatic generation of k-mesh.
 Grid dimensions read from file:
 generate k-points for:    7    7    8

 Generating k-lattice:

  Cartesian coordinates                     Fractional coordinates (reciprocal lattice)
     0.025135193  0.009901167  0.000000000     0.142857143 -0.000000000  0.000000000
     0.000000000  0.027015015  0.000000000     0.000000000  0.142857143  0.000000000
     0.010196209  0.014975222  0.019486978     0.000000000 -0.000000000  0.125000000

  Length of vectors
     0.027015015  0.027015015  0.026607560

  Shift w.r.t. Gamma in fractional coordinates (k-lattice)
     0.000000000  0.000000000  0.000000000

 Subroutine IBZKPT returns following result:

 Found    116 irreducible k-points:

 Following reciprocal coordinates:
            Coordinates               Weight
  0.000000  0.000000  0.000000      1.000000
  0.142857  0.000000  0.000000      4.000000
  0.285714  0.000000  0.000000      4.000000
  0.428571  0.000000  0.000000      4.000000
  0.142857  0.142857  0.000000      2.000000
  0.285714  0.142857  0.000000      4.000000
  0.428571  0.142857  0.000000      4.000000
 -0.428571  0.142857  0.000000      4.000000
 -0.285714  0.142857  0.000000      4.000000
 -0.142857  0.142857  0.000000      2.000000
  0.285714  0.285714  0.000000      2.000000
  0.428571  0.285714  0.000000      4.000000
 -0.428571  0.285714  0.000000      4.000000
 -0.285714  0.285714  0.000000      2.000000
  0.428571  0.428571  0.000000      2.000000
 -0.428571  0.428571  0.000000      2.000000
  0.000000  0.000000  0.125000      2.000000
  0.142857  0.000000  0.125000      4.000000
  0.285714 -0.000000  0.125000      4.000000
  0.428571  0.000000  0.125000      4.000000
 -0.428571  0.000000  0.125000      4.000000
 -0.285714 -0.000000  0.125000      4.000000
 -0.142857 -0.000000  0.125000      4.000000
  0.142857  0.142857  0.125000      2.000000
  0.285714  0.142857  0.125000      4.000000
  0.428571  0.142857  0.125000      4.000000
 -0.428571  0.142857  0.125000      4.000000
 -0.285714  0.142857  0.125000      4.000000
 -0.142857  0.142857  0.125000      4.000000
  0.285714  0.285714  0.125000      2.000000
  0.428571  0.285714  0.125000      4.000000
 -0.428571  0.285714  0.125000      4.000000
 -0.285714  0.285714  0.125000      4.000000
 -0.142857  0.285714  0.125000      4.000000
  0.428571  0.428571  0.125000      2.000000
 -0.428571  0.428571  0.125000      4.000000
 -0.285714  0.428571  0.125000      4.000000
 -0.142857  0.428571  0.125000      4.000000
 -0.428571 -0.428571  0.125000      2.000000
 -0.285714 -0.428571  0.125000      4.000000
 -0.142857 -0.428571  0.125000      4.000000
 -0.285714 -0.285714  0.125000      2.000000
 -0.142857 -0.285714  0.125000      4.000000
 -0.142857 -0.142857  0.125000      2.000000
  0.000000  0.000000  0.250000      2.000000
  0.142857  0.000000  0.250000      4.000000
  0.285714  0.000000  0.250000      4.000000
  0.428571  0.000000  0.250000      4.000000
 -0.428571 -0.000000  0.250000      4.000000
 -0.285714 -0.000000  0.250000      4.000000
 -0.142857 -0.000000  0.250000      4.000000
  0.142857  0.142857  0.250000      2.000000
  0.285714  0.142857  0.250000      4.000000
  0.428571  0.142857  0.250000      4.000000
 -0.428571  0.142857  0.250000      4.000000
 -0.285714  0.142857  0.250000      4.000000
 -0.142857  0.142857  0.250000      4.000000
  0.285714  0.285714  0.250000      2.000000
  0.428571  0.285714  0.250000      4.000000
 -0.428571  0.285714  0.250000      4.000000
[...]
  0.142857  0.000000  0.500000      4.000000
  0.285714  0.000000  0.500000      4.000000
  0.428571  0.000000  0.500000      4.000000
  0.142857  0.142857  0.500000      2.000000
  0.285714  0.142857  0.500000      4.000000
  0.428571  0.142857  0.500000      4.000000
 -0.428571  0.142857  0.500000      4.000000
 -0.285714  0.142857  0.500000      4.000000
 -0.142857  0.142857  0.500000      2.000000
  0.285714  0.285714  0.500000      2.000000
  0.428571  0.285714  0.500000      4.000000
 -0.428571  0.285714  0.500000      4.000000
 -0.285714  0.285714  0.500000      2.000000
  0.428571  0.428571  0.500000      2.000000
 -0.428571  0.428571  0.500000      2.000000

 Following cartesian coordinates:
            Coordinates               Weight
  0.000000  0.000000  0.000000      1.000000
  0.025135  0.009901  0.000000      4.000000
  0.050270  0.019802  0.000000      4.000000
  0.075406  0.029704  0.000000      4.000000
  0.025135  0.036916  0.000000      2.000000
  0.050270  0.046817  0.000000      4.000000
  0.075406  0.056719  0.000000      4.000000
[...]
  -0.14285714  0.14285714  0.00000000       0.005
   0.28571429  0.28571429  0.00000000       0.005
   0.42857143  0.28571429  0.00000000       0.010
  -0.42857143  0.28571429  0.00000000       0.010
  -0.28571429  0.28571429  0.00000000       0.005
   0.42857143  0.42857143  0.00000000       0.005
  -0.42857143  0.42857143  0.00000000       0.005
   0.00000000  0.00000000  0.12500000       0.005
   0.14285714  0.00000000  0.12500000       0.010
   0.28571429 -0.00000000  0.12500000       0.010
   0.42857143  0.00000000  0.12500000       0.010
  -0.42857143  0.00000000  0.12500000       0.010
  -0.28571429 -0.00000000  0.12500000       0.010
  -0.14285714 -0.00000000  0.12500000       0.010
   0.14285714  0.14285714  0.12500000       0.005
   0.28571429  0.14285714  0.12500000       0.010
   0.42857143  0.14285714  0.12500000       0.010
  -0.42857143  0.14285714  0.12500000       0.010
  -0.28571429  0.14285714  0.12500000       0.010
  -0.14285714  0.14285714  0.12500000       0.010
   0.28571429  0.28571429  0.12500000       0.005
   0.42857143  0.28571429  0.12500000       0.010
  -0.42857143  0.28571429  0.12500000       0.010
  -0.28571429  0.28571429  0.12500000       0.010
  -0.14285714  0.28571429  0.12500000       0.010
   0.42857143  0.42857143  0.12500000       0.005
  -0.42857143  0.42857143  0.12500000       0.010
  -0.28571429  0.42857143  0.12500000       0.010
  -0.14285714  0.42857143  0.12500000       0.010
  -0.42857143 -0.42857143  0.12500000       0.005
  -0.28571429 -0.42857143  0.12500000       0.010
  -0.14285714 -0.42857143  0.12500000       0.010
  -0.28571429 -0.28571429  0.12500000       0.005
  -0.14285714 -0.28571429  0.12500000       0.010
  -0.14285714 -0.14285714  0.12500000       0.005
   0.00000000  0.00000000  0.25000000       0.005
   0.14285714  0.00000000  0.25000000       0.010
   0.28571429  0.00000000  0.25000000       0.010
   0.42857143  0.00000000  0.25000000       0.010
  -0.42857143 -0.00000000  0.25000000       0.010
  -0.28571429 -0.00000000  0.25000000       0.010
  -0.14285714 -0.00000000  0.25000000       0.010
   0.14285714  0.14285714  0.25000000       0.005
   0.28571429  0.14285714  0.25000000       0.010
   0.42857143  0.14285714  0.25000000       0.010
  -0.42857143  0.14285714  0.25000000       0.010
  -0.28571429  0.14285714  0.25000000       0.010
  -0.14285714  0.14285714  0.25000000       0.010
   0.28571429  0.28571429  0.25000000       0.005
   0.42857143  0.28571429  0.25000000       0.010
  -0.42857143  0.28571429  0.25000000       0.010
[...]
   0.14285714  0.00000000  0.50000000       0.010
   0.28571429  0.00000000  0.50000000       0.010
   0.42857143  0.00000000  0.50000000       0.010
   0.14285714  0.14285714  0.50000000       0.005
   0.28571429  0.14285714  0.50000000       0.010
   0.42857143  0.14285714  0.50000000       0.010
  -0.42857143  0.14285714  0.50000000       0.010
  -0.28571429  0.14285714  0.50000000       0.010
  -0.14285714  0.14285714  0.50000000       0.005
   0.28571429  0.28571429  0.50000000       0.005
   0.42857143  0.28571429  0.50000000       0.010
  -0.42857143  0.28571429  0.50000000       0.010
  -0.28571429  0.28571429  0.50000000       0.005
   0.42857143  0.42857143  0.50000000       0.005
  -0.42857143  0.42857143  0.50000000       0.005

 position of ions in fractional coordinates (direct lattice)
   0.25000000  0.25000000  0.00000000
   0.75000000  0.75000000  0.00000000
   0.75000000  0.25000000  0.50000000
   0.00000000  0.00000000  0.00000000
   0.25000000  0.75000000  0.50000000
   0.50000000  0.50000000  0.00000000
   0.00000000  0.50000000  0.00000000
   0.50000000  0.50000000  0.50000000
   0.50000000  0.00000000  0.00000000
   0.00000000  0.00000000  0.50000000

 position of ions in cartesian coordinates  (Angst):
   0.90012370  1.32201612 -1.48690753
   2.70037110  3.96604836 -4.46072260
   3.74189900  1.32201612  0.23345494
   0.00000000  0.00000000  0.00000000
  -0.14140420  3.96604836  0.23345494
   1.80024740  2.64403224 -2.97381506
  -1.04152790  2.64403224 -1.48690753
   1.80024740  2.64403224  0.23345494
   2.84177530  0.00000000 -1.48690753
   0.00000000  0.00000000  3.20727000

 k-point   1 :   0.0000 0.0000 0.0000  plane waves:    6445
 k-point   2 :   0.1429 0.0000 0.0000  plane waves:    6422
 k-point   3 :   0.2857 0.0000 0.0000  plane waves:    6418
 k-point   4 :   0.4286 0.0000 0.0000  plane waves:    6437
 k-point   5 :   0.1429 0.1429 0.0000  plane waves:    6433
 k-point   6 :   0.2857 0.1429 0.0000  plane waves:    6434
 k-point   7 :   0.4286 0.1429 0.0000  plane waves:    6427
 k-point   8 :  -0.4286 0.1429 0.0000  plane waves:    6428
 k-point   9 :  -0.2857 0.1429 0.0000  plane waves:    6427
 k-point  10 :  -0.1429 0.1429 0.0000  plane waves:    6421
 k-point  11 :   0.2857 0.2857 0.0000  plane waves:    6420
 k-point  12 :   0.4286 0.2857 0.0000  plane waves:    6432
 k-point  13 :  -0.4286 0.2857 0.0000  plane waves:    6439
 k-point  14 :  -0.2857 0.2857 0.0000  plane waves:    6433
 k-point  15 :   0.4286 0.4286 0.0000  plane waves:    6425
 k-point  16 :  -0.4286 0.4286 0.0000  plane waves:    6440
 k-point  17 :   0.0000 0.0000 0.1250  plane waves:    6431
 k-point  18 :   0.1429 0.0000 0.1250  plane waves:    6430
 k-point  19 :   0.2857-0.0000 0.1250  plane waves:    6435
 k-point  20 :   0.4286 0.0000 0.1250  plane waves:    6435
 k-point  21 :  -0.4286 0.0000 0.1250  plane waves:    6437
 k-point  22 :  -0.2857-0.0000 0.1250  plane waves:    6437
 k-point  23 :  -0.1429-0.0000 0.1250  plane waves:    6428
 k-point  24 :   0.1429 0.1429 0.1250  plane waves:    6434
 k-point  25 :   0.2857 0.1429 0.1250  plane waves:    6422
 k-point  26 :   0.4286 0.1429 0.1250  plane waves:    6429
 k-point  27 :  -0.4286 0.1429 0.1250  plane waves:    6430
 k-point  28 :  -0.2857 0.1429 0.1250  plane waves:    6434
 k-point  29 :  -0.1429 0.1429 0.1250  plane waves:    6411
 k-point  30 :   0.2857 0.2857 0.1250  plane waves:    6424
 k-point  31 :   0.4286 0.2857 0.1250  plane waves:    6431
 k-point  32 :  -0.4286 0.2857 0.1250  plane waves:    6438
 k-point  33 :  -0.2857 0.2857 0.1250  plane waves:    6438
 k-point  34 :  -0.1429 0.2857 0.1250  plane waves:    6431
 k-point  35 :   0.4286 0.4286 0.1250  plane waves:    6434
 k-point  36 :  -0.4286 0.4286 0.1250  plane waves:    6441
 k-point  37 :  -0.2857 0.4286 0.1250  plane waves:    6443
 k-point  38 :  -0.1429 0.4286 0.1250  plane waves:    6444
 k-point  39 :  -0.4286-0.4286 0.1250  plane waves:    6438
 k-point  40 :  -0.2857-0.4286 0.1250  plane waves:    6437
 k-point  41 :  -0.1429-0.4286 0.1250  plane waves:    6433
 k-point  42 :  -0.2857-0.2857 0.1250  plane waves:    6441
 k-point  43 :  -0.1429-0.2857 0.1250  plane waves:    6432
 k-point  44 :  -0.1429-0.1429 0.1250  plane waves:    6431
 k-point  45 :   0.0000 0.0000 0.2500  plane waves:    6427
 k-point  46 :   0.1429 0.0000 0.2500  plane waves:    6434
 k-point  47 :   0.2857 0.0000 0.2500  plane waves:    6425
 k-point  48 :   0.4286 0.0000 0.2500  plane waves:    6425
 k-point  49 :  -0.4286-0.0000 0.2500  plane waves:    6435
 k-point  50 :  -0.2857-0.0000 0.2500  plane waves:    6429
 k-point  51 :  -0.1429-0.0000 0.2500  plane waves:    6425
 k-point  52 :   0.1429 0.1429 0.2500  plane waves:    6436
 k-point  53 :   0.2857 0.1429 0.2500  plane waves:    6420
 k-point  54 :   0.4286 0.1429 0.2500  plane waves:    6428
 k-point  55 :  -0.4286 0.1429 0.2500  plane waves:    6430
 k-point  56 :  -0.2857 0.1429 0.2500  plane waves:    6424
 k-point  57 :  -0.1429 0.1429 0.2500  plane waves:    6424
 k-point  58 :   0.2857 0.2857 0.2500  plane waves:    6426
 k-point  59 :   0.4286 0.2857 0.2500  plane waves:    6433
 k-point  60 :  -0.4286 0.2857 0.2500  plane waves:    6442
[...]
 k-point 102 :   0.1429 0.0000 0.5000  plane waves:    6437
 k-point 103 :   0.2857 0.0000 0.5000  plane waves:    6431
 k-point 104 :   0.4286 0.0000 0.5000  plane waves:    6436
 k-point 105 :   0.1429 0.1429 0.5000  plane waves:    6437
 k-point 106 :   0.2857 0.1429 0.5000  plane waves:    6423
 k-point 107 :   0.4286 0.1429 0.5000  plane waves:    6434
 k-point 108 :  -0.4286 0.1429 0.5000  plane waves:    6438
 k-point 109 :  -0.2857 0.1429 0.5000  plane waves:    6442
 k-point 110 :  -0.1429 0.1429 0.5000  plane waves:    6434
 k-point 111 :   0.2857 0.2857 0.5000  plane waves:    6427
 k-point 112 :   0.4286 0.2857 0.5000  plane waves:    6438
 k-point 113 :  -0.4286 0.2857 0.5000  plane waves:    6438
 k-point 114 :  -0.2857 0.2857 0.5000  plane waves:    6418
 k-point 115 :   0.4286 0.4286 0.5000  plane waves:    6429
 k-point 116 :  -0.4286 0.4286 0.5000  plane waves:    6438

 maximum and minimum number of plane-waves per node :      3243     3186

 maximum number of plane-waves:      6458
 maximum index in each direction:
   IXMAX=   13   IYMAX=   13   IZMAX=   12
   IXMIN=  -13   IYMIN=  -13   IZMIN=  -13

 parallel 3D FFT for wavefunctions:
    minimum data exchange during FFTs selected (reduces bandwidth)
 parallel 3D FFT for charge:
    minimum data exchange during FFTs selected (reduces bandwidth)

 Broyden mixing: mesh for mixing (old mesh)
   NGX = 25   NGY = 25   NGZ = 25
  (NGX  =108   NGY  =108   NGZ  =108)
  gives a total of  15625 points

 initial charge density was supplied:
 charge density of overlapping atoms calculated
 number of electron      78.0000000 magnetization
 keeping initial charge density in first step

 Maximum index for augmentation-charges        23207 (set IRDMAX)

 First call to EWALD:  gamma=   0.307
 Maximum number of real-space cells 3x 3x 3
 Maximum number of reciprocal cells 3x 3x 3

--------------------------------------- Iteration      1(   1)  ---------------------------------------

 eigenvalue-minimisations  : 12468
 total energy-change (2. order) : 0.5997901E+03  (-0.4873845E+04)
 number of electron      78.0000000 magnetization
 augmentation part       78.0000000 magnetization

 Free energy of the ion-electron system (eV)
  alpha Z        PSCENC =       245.20416298
  Ewald energy   TEWEN  =     -5595.20172639
  -Hartree energ DENC   =     -2159.32838489
  -exchange      EXHF   =         0.00000000
  -V(xc)+E(xc)   XCENC  =       297.86122445
  PAW double counting   =      6361.18088108    -6305.13563559
  entropy T*S    EENTRO =        -0.00050120
  eigenvalues    EBANDS =      -248.52546573
  atomic energy  EATOM  =      8003.73552278
  free energy    TOTEN  =       599.79007748 eV

  energy without entropy =      599.79057869  energy(sigma->0) =      599.79032809

[...]

 eigenvalue-minimisations  : 12636
 total energy-change (2. order) :-0.7358769E+03  (-0.7193684E+03)
 number of electron      78.0000000 magnetization
 augmentation part       78.0000000 magnetization

[...]

 eigenvalue-minimisations  :     0
 total energy-change (2. order) :-0.1002136E-06  ( 0.2188693E-06)
 number of electron      78.0000001 magnetization
 augmentation part        8.8977868 magnetization

[...]

 eigenvalue-minimisations  :     0
 total energy-change (2. order) :-0.3120294E-07  ( 0.9600810E-08)
 number of electron      78.0000001 magnetization
 augmentation part        8.8977907 magnetization

[...]

 eigenvalue-minimisations  :     0
 total energy-change (2. order) :-0.2090928E-08  (-0.4442889E-09)
 number of electron      78.0000001 magnetization
 augmentation part        8.8977779 magnetization

[...]

--------------------------------------- Iteration      1(  58)  ---------------------------------------

 eigenvalue-minimisations  :     0
 total energy-change (2. order) : 0.7548806E-09  (-0.4439015E-09)
 number of electron      78.0000001 magnetization
 augmentation part        8.8977773 magnetization

 Free energy of the ion-electron system (eV)
  alpha Z        PSCENC =       245.20416298
  Ewald energy   TEWEN  =     -5595.20172639
  -Hartree energ DENC   =     -2086.69661395
  -exchange      EXHF   =         0.00000000
  -V(xc)+E(xc)   XCENC  =       305.24119812
  PAW double counting   =      8808.12407078    -8760.00810583
  entropy T*S    EENTRO =        -0.00161916
  eigenvalues    EBANDS =     -1058.74185980
  atomic energy  EATOM  =      8003.73552278
  free energy    TOTEN  =      -138.34497047 eV

  energy without entropy =     -138.34335131  energy(sigma->0) =     -138.34416089

  average scaling for gradient   0.8190

 average (electrostatic) potential at core
  the test charge radii are     0.7672  1.0818  0.9892
  (the norm of the test charge is              1.0000)
       1 -28.0779       2 -28.0779       3 -80.1740       4 -80.8870       5 -80.1740
       6 -80.8870       7 -86.2613       8 -86.2724       9 -86.2613      10 -86.2724

 E-fermi :   6.2273     XC(G=0): -11.0097     alpha+bet :-12.6103

 Fermi energy:         6.2272832301

 k-point     1 :       0.0000    0.0000    0.0000
  band No.  band energies     occupation
      1     -56.8615      2.00000
      2     -56.8615      2.00000
      3     -56.2615      2.00000
      4     -56.2607      2.00000
      5     -30.3200      2.00000
      6     -30.3178      2.00000
      7     -30.1704      2.00000
      8     -30.1702      2.00000
      9     -30.1679      2.00000
     10     -30.1677      2.00000
     11     -29.8082      2.00000
     12     -29.8060      2.00000
     13     -29.7980      2.00000
     14     -29.7958      2.00000
     15     -29.6355      2.00000
     16     -29.6309      2.00000
     17      -5.4673      2.00000
     18      -2.3834      2.00000
     19      -1.9550      2.00000
     20      -1.9504      2.00000
     21      -1.2823      2.00000
     22       1.2996      2.00000
     23       1.7113      2.00000
     24       1.7877      2.00000
     25       1.7892      2.00000
     26       1.9584      2.00000
     27       2.7563      2.00000
     28       3.1083      2.00000
     29       3.1120      2.00000
     30       3.9986      2.00000
     31       4.3950      2.00000
     32       4.7068      2.00000
     33       4.9632      2.00000
     34       4.9639      2.00000
     35       5.3150      2.00000
     36       5.5843      2.00000
     37       6.0910      2.00000
     38       6.1455      2.00000
     39       6.4009      0.00000
     40       6.4027      0.00000
     41       6.4980      0.00000
     42       6.4995      0.00000
     43       6.7636      0.00000
     44       6.8854      0.00000
     45       7.4786      0.00000
     46       7.8892      0.00000
     47       7.8932      0.00000
     48       8.2086      0.00000

[...]

 k-point   116 :      -0.4286    0.4286    0.5000
  band No.  band energies     occupation
      1     -56.8616      2.00000
      2     -56.8614      2.00000
      3     -56.2614      2.00000
      4     -56.2608      2.00000
      5     -30.3206      2.00000
      6     -30.3173      2.00000
      7     -30.1724      2.00000
      8     -30.1698      2.00000
      9     -30.1687      2.00000
     10     -30.1662      2.00000
     11     -29.8072      2.00000
     12     -29.8055      2.00000
     13     -29.7986      2.00000
     14     -29.7959      2.00000
     15     -29.6358      2.00000
     16     -29.6308      2.00000
     17      -4.7494      2.00000
     18      -3.5476      2.00000
     19      -2.0116      2.00000
     20      -1.7958      2.00000
     21      -1.0368      2.00000
     22       0.9571      2.00000
     23       1.0490      2.00000
     24       1.0698      2.00000
     25       1.4446      2.00000
     26       2.7462      2.00000
     27       3.3888      2.00000
     28       3.4659      2.00000
     29       3.4712      2.00000
     30       3.4782      2.00000
     31       4.1691      2.00000
     32       4.5478      2.00000
     33       4.7638      2.00000
     34       5.1618      2.00000
     35       5.2335      2.00000
     36       5.3448      2.00000
     37       5.7553      2.00000
     38       6.0289      2.00000
     39       6.5000      0.00000
     40       6.7337      0.00000
     41       6.8026      0.00000
     42       6.9285      0.00000
     43       7.3535      0.00000
     44       7.4423      0.00000
     45       7.5182      0.00000
     46       7.5999      0.00000
     47       8.5377      0.00000
     48       8.6304      0.00000

 soft charge-density along one line, spin component           1
         0         1         2         3         4         5         6         7         8         9
 total charge-density along one line

------------------------ aborting loop because EDIFF is reached ----------------------------------------

  FREE ENERGIE OF THE ION-ELECTRON SYSTEM (eV)
  free  energy   TOTEN  =      -138.34497047 eV

  energy  without entropy=     -138.34335131  energy(sigma->0) =     -138.34416089

 writing wavefunctions