 vasp.6.2.0 18Jan21 (build Jan 05 2022 15:41:44) complex

 executed on             LinuxIFC date 2025.05.07  21:24:38

 INCAR:
   SYSTEM = routine with relax: pwdword
   ICHARG = 2
   NPAR = 6
   KPAR = 2
   NCORE = 2
   ADDGRID = T
   PREC = Acc
   ENCUT = 600
   METAGGA = R2SCAN
   LASPH = .TRUE.
   LMIXTAU = .FALSE.
   ALGO = A
   EDIFF = 1E-9
   NELM = 100
   NELMIN = 6
   IALGO = 38
   LREAL = F
   NSW = 0
   ISIF = -1
   ISMEAR = 0
   SIGMA = 0.02

 POTCAR:    PAW_PBE Mo_sv 02Feb2006
|           W    W    AA    RRRRR   N    N  II  N    N   GGGG   !!!           |
|           W    W   A  A   R    R  NN   N  II  NN   N  G    G  !!!           |
|           W    W  A    A  R    R  N N  N  II  N N  N  G       !!!           |
|           W WW W  AAAAAA  RRRRR   N  N N  II  N  N N  G  GGG   !            |
|           WW  WW  A    A  R   R   N   NN  II  N   NN  G    G                |
|           W    W  A    A  R    R  N    N  II  N    N   GGGG   !!!           |
|     For optimal performance we recommend to set                             |
|       NCORE = 2 up to number-of-cores-per-socket                            |
|     This setting can greatly improve the performance of VASP for DFT.       |
|     The default, NCORE=1 might be grossly inefficient on modern             |
|     multi-core architectures or massively parallel machines. Do your        |
|     Unfortunately you need to use the default for GW and RPA                |
|     calculations (for HF NCORE is supported but not extensively tested      |
|     yet).                                                                   |

 POTCAR:    PAW_PBE Mo_sv 02Feb2006
   VRHFIN =Mo: 4p5s4d

   TITEL  = PAW_PBE Mo_sv 02Feb2006
   POMASS =   95.940; ZVAL   =   14.000    mass and valenz
   ENMAX  =  242.676; ENMIN  =  182.007 eV

  PAW_PBE Mo_sv 02Feb2006               :

 POSCAR: EA253
  positions in direct lattice

 METAGGA = R2SCA    LMAXTAU =  6    LMIXTAU =  F

 ion  position               nearest neighbor table
   1  0.000  0.000  0.000-

  LATTYP: Found a body centered cubic cell.
 ALAT       =     3.1676183955

  Lattice vectors:

 A1 = (   2.5863490000,   0.0000000000,  -0.9144130000)
 A2 = (  -1.2931750000,   2.2398440000,  -0.9144130000)
 A3 = (   0.0000000000,   0.0000000000,   2.7432380000)

Analysis of symmetry for initial positions (statically):
 Subroutine PRICEL returns:
 Original cell was already a primitive cell.

 Routine SETGRP: Setting up the symmetry group for a
 body centered cubic supercell.

 Subroutine GETGRP returns: Found 48 space group operations
 (whereof 48 operations were pure point group operations)
 out of a pool of 48 trial point group operations.

The static configuration has the point symmetry O_h .

Analysis of symmetry for dynamics (positions and initial velocities):
 Subroutine PRICEL returns:
 Original cell was already a primitive cell.

 Routine SETGRP: Setting up the symmetry group for a
 body centered cubic supercell.

 Subroutine GETGRP returns: Found 48 space group operations
 (whereof 48 operations were pure point group operations)
 out of a pool of 48 trial point group operations.

The dynamic configuration has the point symmetry O_h .

 Subroutine INISYM returns: Found 48 space group operations
 (whereof 48 operations are pure point group operations),
 and found     1 'primitive' translations

                                     Primitive cell

  volume of cell :      15.8916

  direct lattice vectors                    reciprocal lattice vectors
     2.586349000  0.000000000 -0.914413000     0.386645422  0.223229918  0.000000000
    -1.293175000  2.239844000 -0.914413000     0.000000000  0.446459664  0.000000000
     0.000000000  0.000000000  2.743238000     0.128881854  0.223229942  0.364532716

  length of vectors
     2.743237555  2.743237842  2.743238000     0.446459717  0.446459664  0.446459674

  position of ions in fractional coordinates (direct lattice)
     0.000000000  0.000000000  0.000000000

  ion indices of the primitive-cell ions
   primitive index   ion index
                 1           1

 KPOINTS: EA

Automatic generation of k-mesh.
 Grid dimensions read from file:
 generate k-points for:   15   15   15

 Generating k-lattice:

  Cartesian coordinates                     Fractional coordinates (reciprocal lattice)
     0.025776361  0.014881995  0.000000000     0.066666667 -0.000000000  0.000000000
     0.000000000  0.029763978  0.000000000     0.000000000  0.066666667  0.000000000
     0.008592124  0.014881996  0.024302181     0.000000000  0.000000000  0.066666667

  Length of vectors
     0.029763981  0.029763978  0.029763978

  Shift w.r.t. Gamma in fractional coordinates (k-lattice)
     0.000000000  0.000000000  0.000000000

 Subroutine IBZKPT returns following result:

 Found    120 irreducible k-points:

 Following reciprocal coordinates:
            Coordinates               Weight
  0.000000  0.000000  0.000000      1.000000
  0.066667  0.000000  0.000000     12.000000
  0.133333  0.000000  0.000000     12.000000
  0.200000  0.000000  0.000000     12.000000
  0.266667  0.000000  0.000000     12.000000
  0.333333  0.000000  0.000000     12.000000
  0.400000  0.000000  0.000000     12.000000
  0.466667  0.000000  0.000000     12.000000
  0.066667  0.066667  0.000000     24.000000
  0.133333  0.066667  0.000000     48.000000
  0.200000  0.066667  0.000000     48.000000
  0.266667  0.066667  0.000000     48.000000
  0.333333  0.066667  0.000000     48.000000
  0.400000  0.066667  0.000000     48.000000
  0.466667  0.066667  0.000000     24.000000
  0.133333  0.133333  0.000000     24.000000
  0.200000  0.133333  0.000000     48.000000
  0.266667  0.133333  0.000000     48.000000
  0.333333  0.133333  0.000000     48.000000
  0.400000  0.133333  0.000000     48.000000
  0.200000  0.200000  0.000000     24.000000
  0.266667  0.200000  0.000000     48.000000
  0.333333  0.200000  0.000000     48.000000
  0.400000  0.200000  0.000000     24.000000
  0.266667  0.266667  0.000000     24.000000
  0.333333  0.266667  0.000000     48.000000
  0.333333  0.333333  0.000000      8.000000
  0.066667  0.066667  0.066667      8.000000
  0.133333  0.066667  0.066667     24.000000
  0.200000  0.066667  0.066667     24.000000
  0.266667  0.066667  0.066667     24.000000
  0.333333  0.066667  0.066667     24.000000
  0.400000  0.066667  0.066667     24.000000
 -0.066667  0.066667  0.066667      6.000000
  0.133333  0.133333  0.066667     24.000000
  0.200000  0.133333  0.066667     48.000000
  0.266667  0.133333  0.066667     48.000000
  0.333333  0.133333  0.066667     48.000000
  0.400000  0.133333  0.066667     24.000000
 -0.133333  0.133333  0.066667     24.000000
  0.200000  0.200000  0.066667     24.000000
  0.266667  0.200000  0.066667     48.000000
  0.333333  0.200000  0.066667     48.000000
 -0.200000  0.200000  0.066667     24.000000
 -0.133333  0.200000  0.066667     24.000000
  0.266667  0.266667  0.066667     24.000000
  0.333333  0.266667  0.066667     24.000000
 -0.266667  0.266667  0.066667     24.000000
 -0.200000  0.266667  0.066667     48.000000
 -0.333333  0.333333  0.066667     24.000000
 -0.266667  0.333333  0.066667     48.000000
 -0.200000  0.333333  0.066667     24.000000
 -0.400000  0.400000  0.066667     24.000000
 -0.333333  0.400000  0.066667     48.000000
 -0.266667  0.400000  0.066667     48.000000
 -0.466667  0.466667  0.066667     24.000000
 -0.400000  0.466667  0.066667     48.000000
 -0.333333  0.466667  0.066667     48.000000
 -0.266667  0.466667  0.066667     24.000000
 -0.466667 -0.466667  0.066667     24.000000
[...]
 -0.400000  0.400000  0.266667     24.000000
 -0.333333  0.400000  0.266667     24.000000
 -0.466667  0.466667  0.266667     24.000000
 -0.400000  0.466667  0.266667     48.000000
 -0.466667 -0.466667  0.266667     24.000000
 -0.400000 -0.466667  0.266667     24.000000
 -0.333333  0.333333  0.333333      6.000000
 -0.400000  0.400000  0.333333     24.000000
 -0.466667  0.466667  0.333333     24.000000
 -0.400000  0.466667  0.333333     24.000000
 -0.466667 -0.466667  0.333333     24.000000
 -0.400000  0.400000  0.400000      6.000000
 -0.466667  0.466667  0.400000     24.000000
 -0.466667 -0.466667  0.400000      8.000000
 -0.466667  0.466667  0.466667      6.000000

 Following cartesian coordinates:
            Coordinates               Weight
  0.000000  0.000000  0.000000      1.000000
  0.025776  0.014882  0.000000     12.000000
  0.051553  0.029764  0.000000     12.000000
  0.077329  0.044646  0.000000     12.000000
  0.103105  0.059528  0.000000     12.000000
  0.128882  0.074410  0.000000     12.000000
  0.154658  0.089292  0.000000     12.000000
  0.180435  0.104174  0.000000     12.000000
  0.025776  0.044646  0.000000     24.000000
  0.051553  0.059528  0.000000     48.000000
  0.077329  0.074410  0.000000     48.000000
  0.103105  0.089292  0.000000     48.000000
  0.128882  0.104174  0.000000     48.000000
  0.154658  0.119056  0.000000     48.000000
  0.180435  0.133938  0.000000     24.000000
  0.051553  0.089292  0.000000     24.000000
  0.077329  0.104174  0.000000     48.000000
  0.103105  0.119056  0.000000     48.000000
  0.128882  0.133938  0.000000     48.000000
  0.154658  0.148820  0.000000     48.000000
  0.077329  0.133938  0.000000     24.000000
  0.103105  0.148820  0.000000     48.000000
  0.128882  0.163702  0.000000     48.000000
  0.154658  0.178584  0.000000     24.000000
  0.103105  0.178584  0.000000     24.000000
  0.128882  0.193466  0.000000     48.000000
  0.128882  0.223230  0.000000      8.000000
  0.034368  0.059528  0.024302      8.000000
  0.060145  0.074410  0.024302     24.000000
  0.085921  0.089292  0.024302     24.000000
  0.111698  0.104174  0.024302     24.000000
  0.137474  0.119056  0.024302     24.000000
  0.163250  0.133938  0.024302     24.000000
 -0.017184  0.029764  0.024302      6.000000
  0.060145  0.104174  0.024302     24.000000
  0.085921  0.119056  0.024302     48.000000
  0.111698  0.133938  0.024302     48.000000
  0.137474  0.148820  0.024302     48.000000
  0.163250  0.163702  0.024302     24.000000
 -0.042961  0.044646  0.024302     24.000000
  0.085921  0.148820  0.024302     24.000000
  0.111698  0.163702  0.024302     48.000000
  0.137474  0.178584  0.024302     48.000000
 -0.068737  0.059528  0.024302     24.000000
 -0.042961  0.074410  0.024302     24.000000
  0.111698  0.193466  0.024302     24.000000
  0.137474  0.208348  0.024302     24.000000
 -0.094513  0.074410  0.024302     24.000000
 -0.068737  0.089292  0.024302     48.000000
 -0.120290  0.089292  0.024302     24.000000
 -0.094513  0.104174  0.024302     48.000000
 -0.068737  0.119056  0.024302     24.000000
 -0.146066  0.104174  0.024302     24.000000
 -0.120290  0.119056  0.024302     48.000000
 -0.094513  0.133938  0.024302     48.000000
 -0.171842  0.119056  0.024302     24.000000
 -0.146066  0.133938  0.024302     48.000000
 -0.120290  0.148820  0.024302     48.000000
 -0.094513  0.163702  0.024302     24.000000
 -0.171842 -0.297640  0.024302     24.000000
[...]
 -0.120290  0.148820  0.097209     24.000000
 -0.094513  0.163702  0.097209     24.000000
[...]
   0.07732908  0.07440996  0.00000000       0.014
   0.10310545  0.08929196  0.00000000       0.014
   0.12888181  0.10417395  0.00000000       0.014
   0.15465817  0.11905594  0.00000000       0.014
   0.18043453  0.13393794  0.00000000       0.007
   0.05155272  0.08929194  0.00000000       0.007
   0.07732908  0.10417394  0.00000000       0.014
   0.10310545  0.11905593  0.00000000       0.014
   0.12888181  0.13393793  0.00000000       0.014
   0.15465817  0.14881992  0.00000000       0.014
   0.07732908  0.13393792  0.00000000       0.007
   0.10310545  0.14881991  0.00000000       0.014
   0.12888181  0.16370191  0.00000000       0.014
   0.15465817  0.17858390  0.00000000       0.007
   0.10310545  0.17858389  0.00000000       0.007
   0.12888181  0.19346588  0.00000000       0.014
   0.12888181  0.22322986  0.00000000       0.002
   0.03436849  0.05952797  0.02430218       0.002
   0.06014485  0.07440996  0.02430218       0.007
   0.08592121  0.08929196  0.02430218       0.007
   0.11169757  0.10417395  0.02430218       0.007
   0.13747393  0.11905595  0.02430218       0.007
   0.16325029  0.13393794  0.02430218       0.007
  -0.01718424  0.02976398  0.02430218       0.002
   0.06014485  0.10417394  0.02430218       0.007
   0.08592121  0.11905594  0.02430218       0.014
   0.11169757  0.13393793  0.02430218       0.014
   0.13747393  0.14881992  0.02430218       0.014
   0.16325029  0.16370192  0.02430218       0.007
  -0.04296060  0.04464596  0.02430218       0.007
   0.08592121  0.14881991  0.02430218       0.007
   0.11169757  0.16370191  0.02430218       0.014
   0.13747393  0.17858390  0.02430218       0.014
  -0.06873696  0.05952795  0.02430218       0.007
  -0.04296060  0.07440994  0.02430218       0.007
   0.11169757  0.19346588  0.02430218       0.007
   0.13747393  0.20834788  0.02430218       0.007
  -0.09451332  0.07440993  0.02430218       0.007
  -0.06873696  0.08929192  0.02430218       0.014
  -0.12028968  0.08929191  0.02430218       0.007
  -0.09451332  0.10417391  0.02430218       0.014
  -0.06873696  0.11905590  0.02430218       0.007
  -0.14606605  0.10417389  0.02430218       0.007
  -0.12028968  0.11905589  0.02430218       0.014
  -0.09451332  0.13393788  0.02430218       0.014
  -0.17184241  0.11905588  0.02430218       0.007
  -0.14606605  0.13393787  0.02430218       0.014
  -0.12028968  0.14881987  0.02430218       0.014
  -0.09451332  0.16370186  0.02430218       0.007
  -0.17184241 -0.29763981  0.02430218       0.007
[...]
  -0.12028967  0.14881988  0.09720872       0.007
  -0.09451331  0.16370188  0.09720872       0.007
  -0.14606604  0.16370187  0.09720872       0.007
  -0.12028967  0.17858386  0.09720872       0.014
  -0.14606604 -0.25299382  0.09720872       0.007
  -0.12028967 -0.23811183  0.09720872       0.007
  -0.08592119  0.14881990  0.12151091       0.002
  -0.11169755  0.16370188  0.12151091       0.007
  -0.13747391  0.17858386  0.12151091       0.007
  -0.11169755  0.19346586  0.12151091       0.007
  -0.13747391 -0.23811182  0.12151091       0.007
  -0.10310543  0.17858388  0.14581309       0.002
  -0.12888179  0.19346586  0.14581309       0.007
  -0.12888179 -0.22322983  0.14581309       0.002
  -0.12028966  0.20834785  0.17011527       0.002

 k-points in reciprocal lattice and weights: EA
   0.00000000  0.00000000  0.00000000       0.000
   0.06666667  0.00000000  0.00000000       0.004
   0.13333333  0.00000000  0.00000000       0.004
   0.20000000  0.00000000  0.00000000       0.004
   0.26666667  0.00000000  0.00000000       0.004
   0.33333333  0.00000000  0.00000000       0.004
   0.40000000  0.00000000  0.00000000       0.004
   0.46666667  0.00000000  0.00000000       0.004
   0.06666667  0.06666667  0.00000000       0.007
   0.13333333  0.06666667  0.00000000       0.014
   0.20000000  0.06666667  0.00000000       0.014
   0.26666667  0.06666667  0.00000000       0.014
   0.33333333  0.06666667  0.00000000       0.014
   0.40000000  0.06666667  0.00000000       0.014
   0.46666667  0.06666667  0.00000000       0.007
   0.13333333  0.13333333  0.00000000       0.007
   0.20000000  0.13333333  0.00000000       0.014
   0.26666667  0.13333333  0.00000000       0.014
   0.33333333  0.13333333  0.00000000       0.014
   0.40000000  0.13333333  0.00000000       0.014
   0.20000000  0.20000000  0.00000000       0.007
   0.26666667  0.20000000  0.00000000       0.014
   0.33333333  0.20000000  0.00000000       0.014
   0.40000000  0.20000000  0.00000000       0.007
   0.26666667  0.26666667  0.00000000       0.007
   0.33333333  0.26666667  0.00000000       0.014
   0.33333333  0.33333333  0.00000000       0.002
   0.06666667  0.06666667  0.06666667       0.002
   0.13333333  0.06666667  0.06666667       0.007
   0.20000000  0.06666667  0.06666667       0.007
   0.26666667  0.06666667  0.06666667       0.007
   0.33333333  0.06666667  0.06666667       0.007
   0.40000000  0.06666667  0.06666667       0.007
  -0.06666667  0.06666667  0.06666667       0.002
   0.13333333  0.13333333  0.06666667       0.007
   0.20000000  0.13333333  0.06666667       0.014
   0.26666667  0.13333333  0.06666667       0.014
   0.33333333  0.13333333  0.06666667       0.014
   0.40000000  0.13333333  0.06666667       0.007
  -0.13333333  0.13333333  0.06666667       0.007
   0.20000000  0.20000000  0.06666667       0.007
   0.26666667  0.20000000  0.06666667       0.014
   0.33333333  0.20000000  0.06666667       0.014
  -0.20000000  0.20000000  0.06666667       0.007
  -0.13333333  0.20000000  0.06666667       0.007
   0.26666667  0.26666667  0.06666667       0.007
   0.33333333  0.26666667  0.06666667       0.007
  -0.26666667  0.26666667  0.06666667       0.007
  -0.20000000  0.26666667  0.06666667       0.014
  -0.33333333  0.33333333  0.06666667       0.007
  -0.26666667  0.33333333  0.06666667       0.014
  -0.20000000  0.33333333  0.06666667       0.007
  -0.40000000  0.40000000  0.06666667       0.007
  -0.33333333  0.40000000  0.06666667       0.014
  -0.26666667  0.40000000  0.06666667       0.014
  -0.46666667  0.46666667  0.06666667       0.007
  -0.40000000  0.46666667  0.06666667       0.014
  -0.33333333  0.46666667  0.06666667       0.014
  -0.26666667  0.46666667  0.06666667       0.007
  -0.46666667 -0.46666667  0.06666667       0.007
[...]
  -0.40000000  0.40000000  0.26666667       0.007
  -0.33333333  0.40000000  0.26666667       0.007
  -0.46666667  0.46666667  0.26666667       0.007
  -0.40000000  0.46666667  0.26666667       0.014
  -0.46666667 -0.46666667  0.26666667       0.007
  -0.40000000 -0.46666667  0.26666667       0.007
  -0.33333333  0.33333333  0.33333333       0.002
  -0.40000000  0.40000000  0.33333333       0.007
  -0.46666667  0.46666667  0.33333333       0.007
  -0.40000000  0.46666667  0.33333333       0.007
  -0.46666667 -0.46666667  0.33333333       0.007
  -0.40000000  0.40000000  0.40000000       0.002
  -0.46666667  0.46666667  0.40000000       0.007
  -0.46666667 -0.46666667  0.40000000       0.002
  -0.46666667  0.46666667  0.46666667       0.002

 position of ions in fractional coordinates (direct lattice)
   0.00000000  0.00000000  0.00000000

 position of ions in cartesian coordinates  (Angst):
   0.00000000  0.00000000  0.00000000

 k-point   1 :   0.0000 0.0000 0.0000  plane waves:     555
 k-point   2 :   0.0667 0.0000 0.0000  plane waves:     543
 k-point   3 :   0.1333 0.0000 0.0000  plane waves:     543
 k-point   4 :   0.2000 0.0000 0.0000  plane waves:     531
 k-point   5 :   0.2667 0.0000 0.0000  plane waves:     541
 k-point   6 :   0.3333 0.0000 0.0000  plane waves:     531
 k-point   7 :   0.4000 0.0000 0.0000  plane waves:     537
 k-point   8 :   0.4667 0.0000 0.0000  plane waves:     529
 k-point   9 :   0.0667 0.0667 0.0000  plane waves:     541
 k-point  10 :   0.1333 0.0667 0.0000  plane waves:     537
 k-point  11 :   0.2000 0.0667 0.0000  plane waves:     535
 k-point  12 :   0.2667 0.0667 0.0000  plane waves:     533
 k-point  13 :   0.3333 0.0667 0.0000  plane waves:     535
 k-point  14 :   0.4000 0.0667 0.0000  plane waves:     528
 k-point  15 :   0.4667 0.0667 0.0000  plane waves:     530
 k-point  16 :   0.1333 0.1333 0.0000  plane waves:     536
 k-point  17 :   0.2000 0.1333 0.0000  plane waves:     533
 k-point  18 :   0.2667 0.1333 0.0000  plane waves:     532
 k-point  19 :   0.3333 0.1333 0.0000  plane waves:     528
 k-point  20 :   0.4000 0.1333 0.0000  plane waves:     526
 k-point  21 :   0.2000 0.2000 0.0000  plane waves:     532
 k-point  22 :   0.2667 0.2000 0.0000  plane waves:     526
 k-point  23 :   0.3333 0.2000 0.0000  plane waves:     527
 k-point  24 :   0.4000 0.2000 0.0000  plane waves:     526
 k-point  25 :   0.2667 0.2667 0.0000  plane waves:     526
 k-point  26 :   0.3333 0.2667 0.0000  plane waves:     530
 k-point  27 :   0.3333 0.3333 0.0000  plane waves:     535
 k-point  28 :   0.0667 0.0667 0.0667  plane waves:     546
 k-point  29 :   0.1333 0.0667 0.0667  plane waves:     536
 k-point  30 :   0.2000 0.0667 0.0667  plane waves:     531
 k-point  31 :   0.2667 0.0667 0.0667  plane waves:     531
 k-point  32 :   0.3333 0.0667 0.0667  plane waves:     528
 k-point  33 :   0.4000 0.0667 0.0667  plane waves:     525
 k-point  34 :  -0.0667 0.0667 0.0667  plane waves:     547
 k-point  35 :   0.1333 0.1333 0.0667  plane waves:     531
 k-point  36 :   0.2000 0.1333 0.0667  plane waves:     529
 k-point  37 :   0.2667 0.1333 0.0667  plane waves:     527
 k-point  38 :   0.3333 0.1333 0.0667  plane waves:     527
 k-point  39 :   0.4000 0.1333 0.0667  plane waves:     524
 k-point  40 :  -0.1333 0.1333 0.0667  plane waves:     540
 k-point  41 :   0.2000 0.2000 0.0667  plane waves:     527
 k-point  42 :   0.2667 0.2000 0.0667  plane waves:     530
 k-point  43 :   0.3333 0.2000 0.0667  plane waves:     526
 k-point  44 :  -0.2000 0.2000 0.0667  plane waves:     535
 k-point  45 :  -0.1333 0.2000 0.0667  plane waves:     535
 k-point  46 :   0.2667 0.2667 0.0667  plane waves:     530
 k-point  47 :   0.3333 0.2667 0.0667  plane waves:     524
 k-point  48 :  -0.2667 0.2667 0.0667  plane waves:     536
 k-point  49 :  -0.2000 0.2667 0.0667  plane waves:     537
 k-point  50 :  -0.3333 0.3333 0.0667  plane waves:     536
 k-point  51 :  -0.2667 0.3333 0.0667  plane waves:     534
 k-point  52 :  -0.2000 0.3333 0.0667  plane waves:     531
 k-point  53 :  -0.4000 0.4000 0.0667  plane waves:     533
 k-point  54 :  -0.3333 0.4000 0.0667  plane waves:     534
 k-point  55 :  -0.2667 0.4000 0.0667  plane waves:     535
 k-point  56 :  -0.4667 0.4667 0.0667  plane waves:     527
 k-point  57 :  -0.4000 0.4667 0.0667  plane waves:     533
 k-point  58 :  -0.3333 0.4667 0.0667  plane waves:     533
 k-point  59 :  -0.2667 0.4667 0.0667  plane waves:     530
 k-point  60 :  -0.4667-0.4667 0.0667  plane waves:     532
[...]
 k-point 106 :  -0.4000 0.4000 0.2667  plane waves:     526
 k-point 107 :  -0.3333 0.4000 0.2667  plane waves:     526
 k-point 108 :  -0.4667 0.4667 0.2667  plane waves:     526
 k-point 109 :  -0.4000 0.4667 0.2667  plane waves:     521
 k-point 110 :  -0.4667-0.4667 0.2667  plane waves:     527
 k-point 111 :  -0.4000-0.4667 0.2667  plane waves:     528
 k-point 112 :  -0.3333 0.3333 0.3333  plane waves:     526
 k-point 113 :  -0.4000 0.4000 0.3333  plane waves:     522
 k-point 114 :  -0.4667 0.4667 0.3333  plane waves:     522
 k-point 115 :  -0.4000 0.4667 0.3333  plane waves:     521
 k-point 116 :  -0.4667-0.4667 0.3333  plane waves:     520
 k-point 117 :  -0.4000 0.4000 0.4000  plane waves:     518
 k-point 118 :  -0.4667 0.4667 0.4000  plane waves:     514
 k-point 119 :  -0.4667-0.4667 0.4000  plane waves:     505
 k-point 120 :  -0.4667 0.4667 0.4667  plane waves:     490

 maximum and minimum number of plane-waves per node :       284      239

 maximum number of plane-waves:       555
 maximum index in each direction:
   IXMAX=    5   IYMAX=    5   IZMAX=    5
   IXMIN=   -5   IYMIN=   -5   IZMIN=   -5

 parallel 3D FFT for wavefunctions:
    minimum data exchange during FFTs selected (reduces bandwidth)
 parallel 3D FFT for charge:
    minimum data exchange during FFTs selected (reduces bandwidth)

 Broyden mixing: mesh for mixing (old mesh)
   NGX = 11   NGY = 11   NGZ = 11
  (NGX  = 48   NGY  = 48   NGZ  = 48)
  gives a total of   1331 points

 initial charge density was supplied:
 charge density of overlapping atoms calculated
 number of electron      14.0000000 magnetization
 keeping initial charge density in first step

 Maximum index for augmentation-charges        24509 (set IRDMAX)

 First call to EWALD:  gamma=   0.705
 Maximum number of real-space cells 3x 3x 3
 Maximum number of reciprocal cells 3x 3x 3

--------------------------------------- Iteration      1(   1)  ---------------------------------------

 eigenvalue-minimisations  :  2892
 total energy-change (2. order) : 0.4505614E+02  (-0.1062743E+04)
 number of electron      14.0000000 magnetization
 augmentation part       14.0000000 magnetization

 Free energy of the ion-electron system (eV)
  alpha Z        PSCENC =       115.96453370
  Ewald energy   TEWEN  =     -1621.28464627
  -Hartree energ DENC   =      -295.33948147
  -exchange      EXHF   =         0.00000000
  -V(xc)+E(xc)   XCENC  =        76.31379707
  PAW double counting   =      1486.15961919    -1482.84585246
  entropy T*S    EENTRO =        -0.00007314
  eigenvalues    EBANDS =       -96.19427918
  atomic energy  EATOM  =      1862.28252077
  free energy    TOTEN  =        45.05613821 eV

  energy without entropy =       45.05621135  energy(sigma->0) =       45.05617478

[...]

 eigenvalue-minimisations  :  3012
 total energy-change (2. order) :-0.7714352E+02  (-0.7680462E+02)
 number of electron      14.0000000 magnetization
 augmentation part       14.0000000 magnetization

[...]

 eigenvalue-minimisations  :     0
 total energy-change (2. order) : 0.1984290E-08  (-0.1631475E-08)
 number of electron      14.0000000 magnetization
 augmentation part        2.4426977 magnetization

[...]

--------------------------------------- Iteration      1(  25)  ---------------------------------------

 eigenvalue-minimisations  :     0
 total energy-change (2. order) :-0.7833023E-09  (-0.7751904E-09)
 number of electron      14.0000000 magnetization
 augmentation part        2.4426979 magnetization

 Free energy of the ion-electron system (eV)
  alpha Z        PSCENC =       115.96453370
  Ewald energy   TEWEN  =     -1621.28464627
  -Hartree energ DENC   =      -269.24073107
  -exchange      EXHF   =         0.00000000
  -V(xc)+E(xc)   XCENC  =        77.17797977
  PAW double counting   =      1603.46259558    -1604.35318657
  entropy T*S    EENTRO =        -0.00036443
  eigenvalues    EBANDS =      -190.08196283
  atomic energy  EATOM  =      1862.28252077
  free energy    TOTEN  =       -26.07326135 eV

  energy without entropy =      -26.07289692  energy(sigma->0) =      -26.07307913

  average scaling for gradient   1.1980

 average (electrostatic) potential at core
  the test charge radii are     1.0818
  (the norm of the test charge is              1.0000)
       1 -74.6665

 E-fermi :  12.2392     XC(G=0): -14.5333     alpha+bet :-19.6609

 Fermi energy:        12.2392060998

 k-point     1 :       0.0000    0.0000    0.0000
  band No.  band energies     occupation
      1     -50.9424      2.00000
      2     -23.4531      2.00000
      3     -23.4531      2.00000
      4     -23.4531      2.00000
      5       4.6745      2.00000
      6      10.8903      2.00000
      7      10.8903      2.00000
      8      10.8903      2.00000
      9      14.1685      0.00000
     10      14.1685      0.00000
     11      27.7540      0.00000
     12      27.7540      0.00000

[...]

 k-point   120 :      -0.4667    0.4667    0.4667
  band No.  band energies     occupation
      1     -50.4802      2.00000
      2     -24.4382      2.00000
      3     -24.4261      2.00000
      4     -24.4261      2.00000
      5       6.8240      2.00000
      6       6.8569      2.00000
      7      16.0307      0.00000
      8      16.0307      0.00000
      9      16.2411      0.00000
     10      21.3386      0.00000
     11      22.0320      0.00000
     12      22.0320      0.00000

 soft charge-density along one line, spin component           1
         0         1         2         3         4         5         6         7         8         9
 total charge-density along one line

------------------------ aborting loop because EDIFF is reached ----------------------------------------

  FREE ENERGIE OF THE ION-ELECTRON SYSTEM (eV)
  free  energy   TOTEN  =       -26.07326135 eV

  energy  without entropy=      -26.07289692  energy(sigma->0) =      -26.07307913

 writing wavefunctions