 vasp.6.2.0 18Jan21 (build Jan 05 2022 15:41:44) complex

 executed on             LinuxIFC date 2025.05.07  21:23:11

 INCAR:
   SYSTEM = routine with relax: pwdword
   ICHARG = 2
   NPAR = 6
   KPAR = 2
   NCORE = 2
   ADDGRID = T
   PREC = Acc
   ENCUT = 600
   METAGGA = R2SCAN
   LASPH = .TRUE.
   LMIXTAU = .FALSE.
   ALGO = A
   EDIFF = 1E-9
   NELM = 100
   NELMIN = 6
   IALGO = 38
   LREAL = F
   NSW = 0
   ISIF = -1
   ISMEAR = 0
   SIGMA = 0.02

 POTCAR:    PAW_PBE B 06Sep2000
 POTCAR:    PAW_PBE Mo_sv 02Feb2006
|           W    W    AA    RRRRR   N    N  II  N    N   GGGG   !!!           |
|           W    W   A  A   R    R  NN   N  II  NN   N  G    G  !!!           |
|           W    W  A    A  R    R  N N  N  II  N N  N  G       !!!           |
|           W WW W  AAAAAA  RRRRR   N  N N  II  N  N N  G  GGG   !            |
|           WW  WW  A    A  R   R   N   NN  II  N   NN  G    G                |
|           W    W  A    A  R    R  N    N  II  N    N   GGGG   !!!           |
|     For optimal performance we recommend to set                             |
|       NCORE = 2 up to number-of-cores-per-socket                            |
|     This setting can greatly improve the performance of VASP for DFT.       |
|     The default, NCORE=1 might be grossly inefficient on modern             |
|     multi-core architectures or massively parallel machines. Do your        |
|     Unfortunately you need to use the default for GW and RPA                |
|     calculations (for HF NCORE is supported but not extensively tested      |
|     yet).                                                                   |

 POTCAR:    PAW_PBE B 06Sep2000
   VRHFIN =B: s2p1

   TITEL  = PAW_PBE B 06Sep2000
   POMASS =   10.811; ZVAL   =    3.000    mass and valenz
   ENMAX  =  318.614; ENMIN  =  238.960 eV

 POTCAR:    PAW_PBE Mo_sv 02Feb2006
   VRHFIN =Mo: 4p5s4d

   TITEL  = PAW_PBE Mo_sv 02Feb2006
   POMASS =   95.940; ZVAL   =   14.000    mass and valenz
   ENMAX  =  242.676; ENMIN  =  182.007 eV

  PAW_PBE B 06Sep2000                   :
  PAW_PBE Mo_sv 02Feb2006               :

 POSCAR: EA250
  positions in direct lattice

 METAGGA = R2SCA    LMAXTAU =  6    LMIXTAU =  F

 ion  position               nearest neighbor table
   1  0.750  0.750  0.000-   4 2.38   6 2.38   5 2.38   4 2.38   5 2.38   3 2.38   3 2.38   6 2.38

   2  0.250  0.250  0.000-   6 2.38   4 2.38   3 2.38   6 2.38   3 2.38   5 2.38   5 2.38   4 2.38

   3  0.830  0.670  0.500-   2 2.38   2 2.38   1 2.38   1 2.38   5 2.67   5 2.69   5 2.69   4 2.91
                             6 2.91   4 2.91   6 2.91   6 3.03   4 3.03   4 3.03   6 3.03
   4  0.330  0.830  0.160-   1 2.38   2 2.38   1 2.38   2 2.38   6 2.67   6 2.69   6 2.69   3 2.91
                             5 2.91   3 2.91   5 2.91   5 3.03   3 3.03   3 3.03   5 3.03
   5  0.170  0.330  0.500-   1 2.38   1 2.38   2 2.38   2 2.38   3 2.67   3 2.69   3 2.69   6 2.91
                             4 2.91   6 2.91   4 2.91   4 3.03   6 3.03   6 3.03   4 3.03
   6  0.670  0.170  0.840-   2 2.38   1 2.38   2 2.38   1 2.38   4 2.67   4 2.69   4 2.69   5 2.91
                             3 2.91   5 2.91   3 2.91   3 3.03   5 3.03   5 3.03   3 3.03

  LATTYP: Found a body centered tetragonal cell.
 ALAT       =     5.5463639310
 C/A-ratio  =     0.8560275183

  Lattice vectors:

 A1 = (   4.4169891300,   0.0035673400,  -1.2275019300)
 A2 = (  -2.5504257400,   3.6062641400,  -1.2275019200)
 A3 = (  -0.0018447700,  -0.0035673500,   4.5843820100)

Analysis of symmetry for initial positions (statically):
 Subroutine PRICEL returns:
 Original cell was already a primitive cell.

 Routine SETGRP: Setting up the symmetry group for a
 body centered tetragonal supercell.

 Subroutine GETGRP returns: Found 16 space group operations
 (whereof  8 operations were pure point group operations)
 out of a pool of 16 trial point group operations.

The static configuration has the point symmetry C_4h.
 The point group associated with its full space group is D_4h.

Analysis of symmetry for dynamics (positions and initial velocities):
 Subroutine PRICEL returns:
 Original cell was already a primitive cell.

 Routine SETGRP: Setting up the symmetry group for a
 body centered tetragonal supercell.

 Subroutine GETGRP returns: Found 16 space group operations
 (whereof  8 operations were pure point group operations)
 out of a pool of 16 trial point group operations.

The dynamic configuration has the point symmetry C_4h.
 The point group associated with its full space group is D_4h.

 Subroutine INISYM returns: Found 16 space group operations
 (whereof  8 operations are pure point group operations),
 and found     1 'primitive' translations

                                     Primitive cell

  volume of cell :      73.0269

  direct lattice vectors                    reciprocal lattice vectors
     4.416989130  0.003567340 -1.227501930     0.226329171  0.160138159  0.000215688
    -2.550425740  3.606264140 -1.227501920    -0.000163982  0.277252714  0.000215679
    -0.001844770 -0.003567350  4.584382010     0.060557389  0.117114616  0.218247411

  length of vectors
     4.584382913  4.584383652  4.584383769     0.277252900  0.277252847  0.254980319

  position of ions in fractional coordinates (direct lattice)
     0.750000000  0.750000000  0.000000000
     0.250000000  0.250000000  0.000000000
     0.830027500  0.669972500  0.500000000
     0.330027500  0.830027500  0.160054000
     0.169972500  0.330027500  0.500000000
     0.669972500  0.169972500  0.839946000

  ion indices of the primitive-cell ions
   primitive index   ion index
                 1           1
                 2           2
                 3           3
                 4           4
                 5           5
                 6           6

 KPOINTS: EA

Automatic generation of k-mesh.
 Grid dimensions read from file:
 generate k-points for:   10   10    9

 Generating k-lattice:

  Cartesian coordinates                     Fractional coordinates (reciprocal lattice)
     0.022632917  0.016013816  0.000021569     0.100000000 -0.000000000  0.000000000
    -0.000016398  0.027725271  0.000021568    -0.000000000  0.100000000  0.000000000
     0.006728599  0.013012735  0.024249712     0.000000000  0.000000000  0.111111111

  Length of vectors
     0.027725290  0.027725285  0.028331147

  Shift w.r.t. Gamma in fractional coordinates (k-lattice)
     0.000000000  0.000000000  0.000000000

 WARNING: IBZKPT: internal override: KBLOWUP is changed to .FALSE.
      ... skipping the blow-up phase ...

 Subroutine IBZKPT returns following result:

 Found    251 irreducible k-points:

 Following reciprocal coordinates:
            Coordinates               Weight
  0.000000  0.000000  0.000000      1.000000
  0.100000  0.000000 -0.000000      4.000000
  0.200000  0.000000 -0.000000      4.000000
  0.300000 -0.000000 -0.000000      4.000000
  0.400000  0.000000 -0.000000      4.000000
  0.500000 -0.000000 -0.000000      2.000000
  0.100000  0.100000 -0.000000      2.000000
  0.200000  0.100000 -0.000000      4.000000
  0.300000  0.100000  0.000000      4.000000
  0.400000  0.100000 -0.000000      4.000000
  0.500000  0.100000 -0.000000      4.000000
 -0.400000  0.100000  0.000000      4.000000
 -0.300000  0.100000 -0.000000      4.000000
 -0.200000  0.100000  0.000000      4.000000
 -0.100000  0.100000  0.000000      2.000000
  0.200000  0.200000 -0.000000      2.000000
  0.300000  0.200000 -0.000000      4.000000
  0.400000  0.200000  0.000000      4.000000
  0.500000  0.200000 -0.000000      4.000000
 -0.400000  0.200000  0.000000      4.000000
 -0.300000  0.200000 -0.000000      4.000000
 -0.200000  0.200000  0.000000      2.000000
  0.300000  0.300000  0.000000      2.000000
  0.400000  0.300000  0.000000      4.000000
  0.500000  0.300000 -0.000000      4.000000
 -0.400000  0.300000  0.000000      4.000000
 -0.300000  0.300000  0.000000      2.000000
  0.400000  0.400000 -0.000000      2.000000
  0.500000  0.400000  0.000000      4.000000
 -0.400000  0.400000  0.000000      2.000000
  0.500000  0.500000  0.000000      1.000000
  0.000000  0.000000  0.111111      2.000000
  0.100000  0.000000  0.111111      4.000000
  0.200000  0.000000  0.111111      4.000000
  0.300000  0.000000  0.111111      4.000000
  0.400000  0.000000  0.111111      4.000000
  0.500000  0.000000  0.111111      4.000000
 -0.400000 -0.000000  0.111111      4.000000
 -0.300000  0.000000  0.111111      4.000000
 -0.200000 -0.000000  0.111111      4.000000
 -0.100000 -0.000000  0.111111      4.000000
  0.100000  0.100000  0.111111      2.000000
  0.200000  0.100000  0.111111      4.000000
  0.300000  0.100000  0.111111      4.000000
  0.400000  0.100000  0.111111      4.000000
  0.500000  0.100000  0.111111      4.000000
 -0.400000  0.100000  0.111111      4.000000
 -0.300000  0.100000  0.111111      4.000000
 -0.200000  0.100000  0.111111      4.000000
 -0.100000  0.100000  0.111111      4.000000
  0.200000  0.200000  0.111111      2.000000
  0.300000  0.200000  0.111111      4.000000
  0.400000  0.200000  0.111111      4.000000
  0.500000  0.200000  0.111111      4.000000
 -0.400000  0.200000  0.111111      4.000000
 -0.300000  0.200000  0.111111      4.000000
 -0.200000  0.200000  0.111111      4.000000
 -0.100000  0.200000  0.111111      4.000000
  0.300000  0.300000  0.111111      2.000000
  0.400000  0.300000  0.111111      4.000000
[...]
  0.500000  0.500000  0.444444      2.000000
 -0.400000  0.500000  0.444444      4.000000
 -0.300000  0.500000  0.444444      4.000000
 -0.200000  0.500000  0.444444      4.000000
 -0.100000  0.500000  0.444444      4.000000
 -0.400000 -0.400000  0.444444      2.000000
 -0.300000 -0.400000  0.444444      4.000000
 -0.200000 -0.400000  0.444444      4.000000
 -0.100000 -0.400000  0.444444      4.000000
 -0.300000 -0.300000  0.444444      2.000000
 -0.200000 -0.300000  0.444444      4.000000
 -0.100000 -0.300000  0.444444      4.000000
 -0.200000 -0.200000  0.444444      2.000000
 -0.100000 -0.200000  0.444444      4.000000
 -0.100000 -0.100000  0.444444      2.000000

 Following cartesian coordinates:
            Coordinates               Weight
  0.000000  0.000000  0.000000      1.000000
  0.022633  0.016014  0.000022      4.000000
  0.045266  0.032028  0.000043      4.000000
  0.067899  0.048041  0.000065      4.000000
  0.090532  0.064055  0.000086      4.000000
  0.113165  0.080069  0.000108      2.000000
  0.022617  0.043739  0.000043      2.000000
  0.045249  0.059753  0.000065      4.000000
  0.067882  0.075767  0.000086      4.000000
  0.090515  0.091781  0.000108      4.000000
  0.113148  0.107794  0.000129      4.000000
 -0.090548 -0.036330 -0.000065      4.000000
 -0.067915 -0.020316 -0.000043      4.000000
 -0.045282 -0.004302 -0.000022      4.000000
 -0.022649  0.011711 -0.000000      2.000000
  0.045233  0.087478  0.000086      2.000000
  0.067866  0.103492  0.000108      4.000000
  0.090499  0.119506  0.000129      4.000000
  0.113132  0.135520  0.000151      4.000000
 -0.090564 -0.008605 -0.000043      4.000000
 -0.067932  0.007409 -0.000022      4.000000
 -0.045299  0.023423 -0.000000      2.000000
[...]
  -0.04093516 -0.07916632  0.09686944       0.002
  -0.01830224 -0.06315251  0.09689101       0.004
   0.00433067 -0.04713869  0.09691258       0.004
  -0.01831864 -0.03542723  0.09691258       0.002
   0.00431427 -0.01941342  0.09693414       0.004
   0.00429788  0.00831185  0.09695571       0.002

 k-points in reciprocal lattice and weights: EA
   0.00000000  0.00000000  0.00000000       0.001
   0.10000000  0.00000000 -0.00000000       0.004
   0.20000000  0.00000000 -0.00000000       0.004
   0.30000000 -0.00000000 -0.00000000       0.004
   0.40000000  0.00000000 -0.00000000       0.004
   0.50000000 -0.00000000 -0.00000000       0.002
   0.10000000  0.10000000 -0.00000000       0.002
   0.20000000  0.10000000 -0.00000000       0.004
   0.30000000  0.10000000  0.00000000       0.004
   0.40000000  0.10000000 -0.00000000       0.004
   0.50000000  0.10000000 -0.00000000       0.004
  -0.40000000  0.10000000  0.00000000       0.004
  -0.30000000  0.10000000 -0.00000000       0.004
  -0.20000000  0.10000000  0.00000000       0.004
  -0.10000000  0.10000000  0.00000000       0.002
   0.20000000  0.20000000 -0.00000000       0.002
   0.30000000  0.20000000 -0.00000000       0.004
   0.40000000  0.20000000  0.00000000       0.004
   0.50000000  0.20000000 -0.00000000       0.004
  -0.40000000  0.20000000  0.00000000       0.004
  -0.30000000  0.20000000 -0.00000000       0.004
  -0.20000000  0.20000000  0.00000000       0.002
   0.30000000  0.30000000  0.00000000       0.002
   0.40000000  0.30000000  0.00000000       0.004
   0.50000000  0.30000000 -0.00000000       0.004
  -0.40000000  0.30000000  0.00000000       0.004
  -0.30000000  0.30000000  0.00000000       0.002
   0.40000000  0.40000000 -0.00000000       0.002
   0.50000000  0.40000000  0.00000000       0.004
  -0.40000000  0.40000000  0.00000000       0.002
   0.50000000  0.50000000  0.00000000       0.001
   0.00000000  0.00000000  0.11111111       0.002
   0.10000000  0.00000000  0.11111111       0.004
   0.20000000  0.00000000  0.11111111       0.004
   0.30000000  0.00000000  0.11111111       0.004
   0.40000000  0.00000000  0.11111111       0.004
   0.50000000  0.00000000  0.11111111       0.004
  -0.40000000 -0.00000000  0.11111111       0.004
  -0.30000000  0.00000000  0.11111111       0.004
  -0.20000000 -0.00000000  0.11111111       0.004
  -0.10000000 -0.00000000  0.11111111       0.004
   0.10000000  0.10000000  0.11111111       0.002
   0.20000000  0.10000000  0.11111111       0.004
   0.30000000  0.10000000  0.11111111       0.004
   0.40000000  0.10000000  0.11111111       0.004
   0.50000000  0.10000000  0.11111111       0.004
  -0.40000000  0.10000000  0.11111111       0.004
  -0.30000000  0.10000000  0.11111111       0.004
  -0.20000000  0.10000000  0.11111111       0.004
  -0.10000000  0.10000000  0.11111111       0.004
   0.20000000  0.20000000  0.11111111       0.002
   0.30000000  0.20000000  0.11111111       0.004
   0.40000000  0.20000000  0.11111111       0.004
   0.50000000  0.20000000  0.11111111       0.004
  -0.40000000  0.20000000  0.11111111       0.004
  -0.30000000  0.20000000  0.11111111       0.004
  -0.20000000  0.20000000  0.11111111       0.004
  -0.10000000  0.20000000  0.11111111       0.004
   0.30000000  0.30000000  0.11111111       0.002
   0.40000000  0.30000000  0.11111111       0.004
[...]
   0.50000000  0.50000000  0.44444444       0.002
  -0.40000000  0.50000000  0.44444444       0.004
  -0.30000000  0.50000000  0.44444444       0.004
  -0.20000000  0.50000000  0.44444444       0.004
  -0.10000000  0.50000000  0.44444444       0.004
  -0.40000000 -0.40000000  0.44444444       0.002
  -0.30000000 -0.40000000  0.44444444       0.004
  -0.20000000 -0.40000000  0.44444444       0.004
  -0.10000000 -0.40000000  0.44444444       0.004
  -0.30000000 -0.30000000  0.44444444       0.002
  -0.20000000 -0.30000000  0.44444444       0.004
  -0.10000000 -0.30000000  0.44444444       0.004
  -0.20000000 -0.20000000  0.44444444       0.002
  -0.10000000 -0.20000000  0.44444444       0.004
  -0.10000000 -0.10000000  0.44444444       0.002

 position of ions in fractional coordinates (direct lattice)
   0.75000000  0.75000000  0.00000000
   0.25000000  0.25000000  0.00000000
   0.83002750  0.66997250  0.50000000
   0.33002750  0.83002750  0.16005400
   0.16997250  0.33002750  0.50000000
   0.66997250  0.16997250  0.83994600

 position of ions in cartesian coordinates  (Angst):
   1.39992254  2.70737361 -1.84125289
   0.46664085  0.90245787 -0.61375096
   1.95658495  2.41727512  0.45093812
  -0.65949088  2.99390476 -0.69022106
  -0.09186633  1.18898901  1.67844004
   2.52420950  0.61235937  2.81959922

 k-point   1 :   0.0000 0.0000 0.0000  plane waves:    2441
 k-point   2 :   0.1000 0.0000-0.0000  plane waves:    2431
 k-point   3 :   0.2000 0.0000-0.0000  plane waves:    2431
 k-point   4 :   0.3000-0.0000-0.0000  plane waves:    2440
 k-point   5 :   0.4000 0.0000-0.0000  plane waves:    2438
 k-point   6 :   0.5000-0.0000-0.0000  plane waves:    2424
 k-point   7 :   0.1000 0.1000-0.0000  plane waves:    2426
 k-point   8 :   0.2000 0.1000-0.0000  plane waves:    2425
 k-point   9 :   0.3000 0.1000 0.0000  plane waves:    2428
 k-point  10 :   0.4000 0.1000-0.0000  plane waves:    2433
 k-point  11 :   0.5000 0.1000-0.0000  plane waves:    2441
 k-point  12 :  -0.4000 0.1000 0.0000  plane waves:    2436
 k-point  13 :  -0.3000 0.1000-0.0000  plane waves:    2440
 k-point  14 :  -0.2000 0.1000 0.0000  plane waves:    2431
 k-point  15 :  -0.1000 0.1000 0.0000  plane waves:    2435
 k-point  16 :   0.2000 0.2000-0.0000  plane waves:    2437
 k-point  17 :   0.3000 0.2000-0.0000  plane waves:    2433
 k-point  18 :   0.4000 0.2000 0.0000  plane waves:    2432
 k-point  19 :   0.5000 0.2000-0.0000  plane waves:    2431
 k-point  20 :  -0.4000 0.2000 0.0000  plane waves:    2445
 k-point  21 :  -0.3000 0.2000-0.0000  plane waves:    2442
 k-point  22 :  -0.2000 0.2000 0.0000  plane waves:    2426
 k-point  23 :   0.3000 0.3000 0.0000  plane waves:    2443
 k-point  24 :   0.4000 0.3000 0.0000  plane waves:    2441
 k-point  25 :   0.5000 0.3000-0.0000  plane waves:    2439
 k-point  26 :  -0.4000 0.3000 0.0000  plane waves:    2444
 k-point  27 :  -0.3000 0.3000 0.0000  plane waves:    2434
 k-point  28 :   0.4000 0.4000-0.0000  plane waves:    2443
 k-point  29 :   0.5000 0.4000 0.0000  plane waves:    2440
 k-point  30 :  -0.4000 0.4000 0.0000  plane waves:    2444
 k-point  31 :   0.5000 0.5000 0.0000  plane waves:    2428
 k-point  32 :   0.0000 0.0000 0.1111  plane waves:    2429
 k-point  33 :   0.1000 0.0000 0.1111  plane waves:    2433
 k-point  34 :   0.2000 0.0000 0.1111  plane waves:    2441
 k-point  35 :   0.3000 0.0000 0.1111  plane waves:    2436
 k-point  36 :   0.4000 0.0000 0.1111  plane waves:    2439
 k-point  37 :   0.5000 0.0000 0.1111  plane waves:    2433
 k-point  38 :  -0.4000-0.0000 0.1111  plane waves:    2427
 k-point  39 :  -0.3000 0.0000 0.1111  plane waves:    2425
 k-point  40 :  -0.2000-0.0000 0.1111  plane waves:    2427
 k-point  41 :  -0.1000-0.0000 0.1111  plane waves:    2434
 k-point  42 :   0.1000 0.1000 0.1111  plane waves:    2433
 k-point  43 :   0.2000 0.1000 0.1111  plane waves:    2439
 k-point  44 :   0.3000 0.1000 0.1111  plane waves:    2435
 k-point  45 :   0.4000 0.1000 0.1111  plane waves:    2439
 k-point  46 :   0.5000 0.1000 0.1111  plane waves:    2435
 k-point  47 :  -0.4000 0.1000 0.1111  plane waves:    2441
 k-point  48 :  -0.3000 0.1000 0.1111  plane waves:    2435
 k-point  49 :  -0.2000 0.1000 0.1111  plane waves:    2434
 k-point  50 :  -0.1000 0.1000 0.1111  plane waves:    2436
 k-point  51 :   0.2000 0.2000 0.1111  plane waves:    2434
 k-point  52 :   0.3000 0.2000 0.1111  plane waves:    2440
 k-point  53 :   0.4000 0.2000 0.1111  plane waves:    2442
 k-point  54 :   0.5000 0.2000 0.1111  plane waves:    2433
 k-point  55 :  -0.4000 0.2000 0.1111  plane waves:    2439
 k-point  56 :  -0.3000 0.2000 0.1111  plane waves:    2441
 k-point  57 :  -0.2000 0.2000 0.1111  plane waves:    2431
 k-point  58 :  -0.1000 0.2000 0.1111  plane waves:    2434
 k-point  59 :   0.3000 0.3000 0.1111  plane waves:    2444
 k-point  60 :   0.4000 0.3000 0.1111  plane waves:    2444
[...]
 k-point 237 :   0.5000 0.5000 0.4444  plane waves:    2446
 k-point 238 :  -0.4000 0.5000 0.4444  plane waves:    2447
 k-point 239 :  -0.3000 0.5000 0.4444  plane waves:    2446
 k-point 240 :  -0.2000 0.5000 0.4444  plane waves:    2438
 k-point 241 :  -0.1000 0.5000 0.4444  plane waves:    2430
 k-point 242 :  -0.4000-0.4000 0.4444  plane waves:    2450
 k-point 243 :  -0.3000-0.4000 0.4444  plane waves:    2443
 k-point 244 :  -0.2000-0.4000 0.4444  plane waves:    2426
 k-point 245 :  -0.1000-0.4000 0.4444  plane waves:    2424
 k-point 246 :  -0.3000-0.3000 0.4444  plane waves:    2432
 k-point 247 :  -0.2000-0.3000 0.4444  plane waves:    2429
 k-point 248 :  -0.1000-0.3000 0.4444  plane waves:    2429
 k-point 249 :  -0.2000-0.2000 0.4444  plane waves:    2436
 k-point 250 :  -0.1000-0.2000 0.4444  plane waves:    2432
 k-point 251 :  -0.1000-0.1000 0.4444  plane waves:    2440

 maximum and minimum number of plane-waves per node :      1239     1194

 maximum number of plane-waves:      2458
 maximum index in each direction:
   IXMAX=    9   IYMAX=    9   IZMAX=    9
   IXMIN=   -9   IYMIN=   -9   IZMIN=   -9

 parallel 3D FFT for wavefunctions:
    minimum data exchange during FFTs selected (reduces bandwidth)
 parallel 3D FFT for charge:
    minimum data exchange during FFTs selected (reduces bandwidth)

 Broyden mixing: mesh for mixing (old mesh)
   NGX = 19   NGY = 19   NGZ = 19
  (NGX  = 80   NGY  = 80   NGZ  = 80)
  gives a total of   6859 points

 initial charge density was supplied:
 charge density of overlapping atoms calculated
 number of electron      62.0000000 magnetization
 keeping initial charge density in first step

 Maximum index for augmentation-charges        26951 (set IRDMAX)

 First call to EWALD:  gamma=   0.424
 Maximum number of real-space cells 3x 3x 3
 Maximum number of reciprocal cells 3x 3x 3

--------------------------------------- Iteration      1(   1)  ---------------------------------------

 eigenvalue-minimisations  : 21084
 total energy-change (2. order) : 0.6636269E+03  (-0.4420973E+04)
 number of electron      62.0000000 magnetization
 augmentation part       62.0000000 magnetization

 Free energy of the ion-electron system (eV)
  alpha Z        PSCENC =       485.96586779
  Ewald energy   TEWEN  =     -6648.16156363
  -Hartree energ DENC   =     -1253.00754740
  -exchange      EXHF   =         0.00000000
  -V(xc)+E(xc)   XCENC  =       324.14050440
  PAW double counting   =      6028.13341759    -6015.75082294
  entropy T*S    EENTRO =        -0.00041512
  eigenvalues    EBANDS =       150.83813481
  atomic energy  EATOM  =      7591.46928457
  free energy    TOTEN  =       663.62686008 eV

  energy without entropy =      663.62727520  energy(sigma->0) =      663.62706764

[...]

 eigenvalue-minimisations  : 22758
 total energy-change (2. order) :-0.7872699E+03  (-0.7715006E+03)
 number of electron      62.0000000 magnetization
 augmentation part       62.0000000 magnetization

[...]

 eigenvalue-minimisations  :     0
 total energy-change (2. order) :-0.1183707E-07  ( 0.8154921E-09)
 number of electron      62.0000001 magnetization
 augmentation part        9.7467356 magnetization

[...]

 eigenvalue-minimisations  :     0
 total energy-change (2. order) :-0.1714579E-07  ( 0.4104346E-09)
 number of electron      62.0000001 magnetization
 augmentation part        9.7467355 magnetization

[...]

 eigenvalue-minimisations  :     0
 total energy-change (2. order) : 0.1394255E-08  (-0.1517071E-10)
 number of electron      62.0000001 magnetization
 augmentation part        9.7467352 magnetization

[...]

--------------------------------------- Iteration      1(  28)  ---------------------------------------

 eigenvalue-minimisations  :     0
 total energy-change (2. order) :-0.7185008E-09  (-0.5548589E-11)
 number of electron      62.0000001 magnetization
 augmentation part        9.7467352 magnetization

 Free energy of the ion-electron system (eV)
  alpha Z        PSCENC =       485.96586779
  Ewald energy   TEWEN  =     -6648.16156363
  -Hartree energ DENC   =     -1138.79519828
  -exchange      EXHF   =         0.00000000
  -V(xc)+E(xc)   XCENC  =       328.46316741
  PAW double counting   =      7211.45247015    -7215.48983281
  entropy T*S    EENTRO =        -0.00059731
  eigenvalues    EBANDS =      -735.82350367
  atomic energy  EATOM  =      7591.46928457
  free energy    TOTEN  =      -120.91990578 eV

  energy without entropy =     -120.91930847  energy(sigma->0) =     -120.91960712

  average scaling for gradient   1.3033

 average (electrostatic) potential at core
  the test charge radii are     0.7672  1.0818
  (the norm of the test charge is              1.0000)
       1 -21.7258       2 -21.7258       3 -74.6425       4 -74.6425       5 -74.6425
       6 -74.6425

 E-fermi :  12.2445     XC(G=0): -14.6634     alpha+bet :-20.1536

 Fermi energy:        12.2444825860

 k-point     1 :       0.0000    0.0000    0.0000
  band No.  band energies     occupation
      1     -50.8943      2.00000
      2     -50.6992      2.00000
      3     -50.5652      2.00000
      4     -50.5652      2.00000
      5     -24.5694      2.00000
      6     -24.5123      2.00000
      7     -24.5123      2.00000
      8     -24.4022      2.00000
      9     -24.4022      2.00000
     10     -24.2541      2.00000
     11     -24.2313      2.00000
     12     -23.8706      2.00000
     13     -23.8573      2.00000
     14     -23.5162      2.00000
     15     -23.5052      2.00000
     16     -23.5052      2.00000
     17       0.7187      2.00000
     18       4.0251      2.00000
     19       7.0629      2.00000
     20       7.9383      2.00000
     21       7.9383      2.00000
     22       7.9760      2.00000
     23       8.1988      2.00000
     24       9.1195      2.00000
     25       9.1195      2.00000
     26       9.3002      2.00000
     27       9.3003      2.00000
     28       9.8973      2.00000
     29      10.6636      2.00000
     30      11.1585      2.00000
     31      12.0760      2.00000
     32      12.8578      0.00000
     33      12.8578      0.00000
     34      13.3737      0.00000
     35      14.3884      0.00000
     36      14.3884      0.00000
     37      15.0851      0.00000
     38      17.3657      0.00000
     39      17.6540      0.00000
     40      17.7650      0.00000
     41      17.7663      0.00000
     42      18.4547      0.00000

[...]

 k-point   251 :      -0.1000   -0.1000    0.4444
  band No.  band energies     occupation
      1     -50.8134      2.00000
      2     -50.7033      2.00000
      3     -50.6299      2.00000
      4     -50.5804      2.00000
      5     -24.6486      2.00000
      6     -24.5325      2.00000
      7     -24.5107      2.00000
      8     -24.3250      2.00000
      9     -24.2656      2.00000
     10     -24.1483      2.00000
     11     -24.1040      2.00000
     12     -24.0098      2.00000
     13     -23.8206      2.00000
     14     -23.7016      2.00000
     15     -23.5575      2.00000
     16     -23.5305      2.00000
     17       1.9016      2.00000
     18       4.2514      2.00000
     19       6.1246      2.00000
     20       7.1504      2.00000
     21       7.6618      2.00000
     22       8.0763      2.00000
     23       8.5524      2.00000
     24       8.6556      2.00000
     25       8.8789      2.00000
     26       9.1779      2.00000
     27       9.6343      2.00000
     28       9.8492      2.00000
     29      10.6770      2.00000
     30      11.4569      2.00000
     31      11.6341      2.00000
     32      12.4468      0.00000
     33      12.7341      0.00000
     34      13.9972      0.00000
     35      14.4183      0.00000
     36      14.9987      0.00000
     37      15.3864      0.00000
     38      15.5007      0.00000
     39      16.1971      0.00000
     40      16.6406      0.00000
     41      17.1039      0.00000
     42      17.6006      0.00000

 soft charge-density along one line, spin component           1
         0         1         2         3         4         5         6         7         8         9
 total charge-density along one line

------------------------ aborting loop because EDIFF is reached ----------------------------------------

  FREE ENERGIE OF THE ION-ELECTRON SYSTEM (eV)
  free  energy   TOTEN  =      -120.91990578 eV

  energy  without entropy=     -120.91930847  energy(sigma->0) =     -120.91960712

 writing wavefunctions