 vasp.6.2.0 18Jan21 (build Jan 05 2022 15:41:44) complex

 executed on             LinuxIFC date 2025.05.07  15:08:39

 INCAR:
   SYSTEM = routine with relax: pwdword
   ICHARG = 2
   NPAR = 6
   KPAR = 2
   NCORE = 2
   ADDGRID = T
   PREC = Acc
   ENCUT = 600
   METAGGA = R2SCAN
   LASPH = .TRUE.
   LMIXTAU = .FALSE.
   ALGO = A
   EDIFF = 1E-9
   NELM = 100
   NELMIN = 6
   IALGO = 38
   LREAL = F
   NSW = 0
   ISIF = -1
   ISMEAR = 0
   SIGMA = 0.02

 POTCAR:    PAW_PBE B 06Sep2000
 POTCAR:    PAW_PBE Mo_sv 02Feb2006
 POTCAR:    PAW_PBE Si 05Jan2001
|           W    W    AA    RRRRR   N    N  II  N    N   GGGG   !!!           |
|           W    W   A  A   R    R  NN   N  II  NN   N  G    G  !!!           |
|           W    W  A    A  R    R  N N  N  II  N N  N  G       !!!           |
|           W WW W  AAAAAA  RRRRR   N  N N  II  N  N N  G  GGG   !            |
|           WW  WW  A    A  R   R   N   NN  II  N   NN  G    G                |
|           W    W  A    A  R    R  N    N  II  N    N   GGGG   !!!           |
|     For optimal performance we recommend to set                             |
|       NCORE = 2 up to number-of-cores-per-socket                            |
|     This setting can greatly improve the performance of VASP for DFT.       |
|     The default, NCORE=1 might be grossly inefficient on modern             |
|     multi-core architectures or massively parallel machines. Do your        |
|     Unfortunately you need to use the default for GW and RPA                |
|     calculations (for HF NCORE is supported but not extensively tested      |
|     yet).                                                                   |

 POTCAR:    PAW_PBE B 06Sep2000
   VRHFIN =B: s2p1

   TITEL  = PAW_PBE B 06Sep2000
   POMASS =   10.811; ZVAL   =    3.000    mass and valenz
   ENMAX  =  318.614; ENMIN  =  238.960 eV

 POTCAR:    PAW_PBE Mo_sv 02Feb2006
   VRHFIN =Mo: 4p5s4d

   TITEL  = PAW_PBE Mo_sv 02Feb2006
   POMASS =   95.940; ZVAL   =   14.000    mass and valenz
   ENMAX  =  242.676; ENMIN  =  182.007 eV

 POTCAR:    PAW_PBE Si 05Jan2001
   VRHFIN =Si: s2p2

   TITEL  = PAW_PBE Si 05Jan2001
   POMASS =   28.085; ZVAL   =    4.000    mass and valenz
   ENMAX  =  245.345; ENMIN  =  184.009 eV

  PAW_PBE B 06Sep2000                   :
  PAW_PBE Mo_sv 02Feb2006               :
  PAW_PBE Si 05Jan2001                  :

 POSCAR: EA43
  positions in direct lattice

 METAGGA = R2SCA    LMAXTAU =  6    LMIXTAU =  F

 ion  position               nearest neighbor table
   1  0.000  0.000  0.000-   4 2.29   5 2.29   7 2.29   8 2.29
   2  0.500  0.500  0.000-   4 2.29   5 2.29   8 2.29   7 2.29
   3  0.000  0.000  0.500-   7 2.31   8 2.31   6 3.06  10 3.06   6 3.06  10 3.06  11 3.08  11 3.08
                            12 3.08  12 3.08   4 3.39   5 3.39   5 3.39   4 3.39
   4  0.665  0.165  0.830-  12 1.43   2 2.29   1 2.29  10 2.31   6 2.31   5 2.86  11 2.90   8 3.23
                             7 3.23   8 3.23   7 3.23   9 3.39   3 3.39   9 3.39   3 3.39
   5  0.335  0.835  0.170-  12 1.43   2 2.29   1 2.29  10 2.31   6 2.31   4 2.86  11 2.90   7 3.23
                             8 3.23   8 3.23   7 3.23   9 3.39   3 3.39   9 3.39   3 3.39
   6  0.000  0.500  0.000-   4 2.31   5 2.31   3 3.06   9 3.06   3 3.06   9 3.06  12 3.08  12 3.08
                            11 3.08  11 3.08   8 3.39   7 3.39   7 3.39   8 3.39
   7  0.165  0.335  0.500-  11 1.43   2 2.29   1 2.29   3 2.31   9 2.31   8 2.86  12 2.90   5 3.23
                             4 3.23   5 3.23   4 3.23  10 3.39  10 3.39   6 3.39   6 3.39
   8  0.835  0.665  0.500-  11 1.43   1 2.29   2 2.29   3 2.31   9 2.31   7 2.86  12 2.90   5 3.23
                             4 3.23   4 3.23   5 3.23  10 3.39  10 3.39   6 3.39   6 3.39
   9  0.500  0.500  0.500-   7 2.31   8 2.31   6 3.06  10 3.06  10 3.06   6 3.06  12 3.08  11 3.08
                            11 3.08  12 3.08   4 3.39   5 3.39   5 3.39   4 3.39
  10  0.500  0.000  0.000-   4 2.31   5 2.31   3 3.06   9 3.06   9 3.06   3 3.06  11 3.08  11 3.08
                            12 3.08  12 3.08   7 3.39   8 3.39   8 3.39   7 3.39
  11  0.000  0.500  0.500-   7 1.43   8 1.43   5 2.90   4 2.90  10 3.08  10 3.08   3 3.08   6 3.08
                             6 3.08   3 3.08   9 3.08   9 3.08
  12  0.500  0.000  0.500-   4 1.43   5 1.43   7 2.90   8 2.90   6 3.08   6 3.08   9 3.08  10 3.08
                            10 3.08   9 3.08   3 3.08   3 3.08

  LATTYP: Found a body centered tetragonal cell.
 ALAT       =     6.1242010471
 C/A-ratio  =     1.4287554535

  Lattice vectors:

 A1 = (   5.3127491764,   0.0000000000,  -3.1093730045)
 A2 = (  -1.7468508446,   5.0173514864,  -3.1093730045)
 A3 = (   0.0000000000,   0.0000000000,   6.1557700000)

Analysis of symmetry for initial positions (statically):
 Subroutine PRICEL returns:
 Original cell was already a primitive cell.

 Routine SETGRP: Setting up the symmetry group for a
 body centered tetragonal supercell.

 Subroutine GETGRP returns: Found  4 space group operations
 (whereof  2 operations were pure point group operations)
 out of a pool of 16 trial point group operations.

The static configuration has the point symmetry S_2 .
 The point group associated with its full space group is C_2h.

Analysis of symmetry for dynamics (positions and initial velocities):
 Subroutine PRICEL returns:
 Original cell was already a primitive cell.

 Routine SETGRP: Setting up the symmetry group for a
 body centered tetragonal supercell.

 Subroutine GETGRP returns: Found  4 space group operations
 (whereof  2 operations were pure point group operations)
 out of a pool of 16 trial point group operations.

The dynamic configuration has the point symmetry S_2 .
 The point group associated with its full space group is C_2h.

 Subroutine INISYM returns: Found  4 space group operations
 (whereof  2 operations are pure point group operations),
 and found     1 'primitive' translations

                                     Primitive cell

  volume of cell :     164.0878

  direct lattice vectors                    reciprocal lattice vectors
     5.312749176  0.000000000 -3.109373005     0.188226466  0.065533292  0.000000000
    -1.746850845  5.017351486 -3.109373005     0.000000000  0.199308341  0.000000000
     0.000000000  0.000000000  6.155770000     0.095076049  0.133775535  0.162449214

  length of vectors
     6.155770000  6.155770000  6.155770000     0.199308341  0.199308341  0.230922273

  position of ions in fractional coordinates (direct lattice)
     0.000000000  0.000000000  0.000000000
     0.500000000  0.500000000  0.000000000
     0.000000000  0.000000000  0.500000000
     0.665210000  0.165210000  0.830430000
     0.334790000  0.834790000  0.169570000
     0.000000000  0.500000000  0.000000000
     0.165210000  0.334790000  0.500000000
     0.834790000  0.665210000  0.500000000
     0.500000000  0.500000000  0.500000000
     0.500000000  0.000000000  1.000000000
     0.000000000  0.500000000  0.500000000
     0.500000000  0.000000000  0.500000000

  ion indices of the primitive-cell ions
   primitive index   ion index
                 1           1
                 2           2
                 3           3
                 4           4
                 5           5
                 6           6
                 7           7
                 8           8
                 9           9
                10          10
                11          11
                12          12

 KPOINTS: EA

Automatic generation of k-mesh.
 Grid dimensions read from file:
 generate k-points for:    7    7    8

 Generating k-lattice:

  Cartesian coordinates                     Fractional coordinates (reciprocal lattice)
     0.026889495  0.009361899  0.000000000     0.142857143  0.000000000  0.000000000
     0.000000000  0.028472620  0.000000000     0.000000000  0.142857143  0.000000000
     0.011884506  0.016721942  0.020306152    -0.000000000  0.000000000  0.125000000

  Length of vectors
     0.028472620  0.028472620  0.028865284

  Shift w.r.t. Gamma in fractional coordinates (k-lattice)
     0.000000000  0.000000000  0.000000000

 WARNING: IBZKPT: internal override: KBLOWUP is changed to .FALSE.
      ... skipping the blow-up phase ...

 Subroutine IBZKPT returns following result:

 Found    116 irreducible k-points:

 Following reciprocal coordinates:
            Coordinates               Weight
  0.000000  0.000000  0.000000      1.000000
  0.142857  0.000000  0.000000      4.000000
  0.285714  0.000000  0.000000      4.000000
  0.428571  0.000000  0.000000      4.000000
  0.142857  0.142857  0.000000      2.000000
  0.285714  0.142857  0.000000      4.000000
  0.428571  0.142857  0.000000      4.000000
 -0.428571  0.142857  0.000000      4.000000
 -0.285714  0.142857  0.000000      4.000000
 -0.142857  0.142857  0.000000      2.000000
  0.285714  0.285714  0.000000      2.000000
  0.428571  0.285714  0.000000      4.000000
 -0.428571  0.285714  0.000000      4.000000
 -0.285714  0.285714  0.000000      2.000000
  0.428571  0.428571  0.000000      2.000000
 -0.428571  0.428571  0.000000      2.000000
  0.000000  0.000000  0.125000      2.000000
  0.142857  0.000000  0.125000      4.000000
  0.285714  0.000000  0.125000      4.000000
  0.428571 -0.000000  0.125000      4.000000
 -0.428571 -0.000000  0.125000      4.000000
 -0.285714  0.000000  0.125000      4.000000
 -0.142857  0.000000  0.125000      4.000000
  0.142857  0.142857  0.125000      2.000000
  0.285714  0.142857  0.125000      4.000000
  0.428571  0.142857  0.125000      4.000000
 -0.428571  0.142857  0.125000      4.000000
 -0.285714  0.142857  0.125000      4.000000
 -0.142857  0.142857  0.125000      4.000000
  0.285714  0.285714  0.125000      2.000000
  0.428571  0.285714  0.125000      4.000000
 -0.428571  0.285714  0.125000      4.000000
 -0.285714  0.285714  0.125000      4.000000
 -0.142857  0.285714  0.125000      4.000000
  0.428571  0.428571  0.125000      2.000000
 -0.428571  0.428571  0.125000      4.000000
 -0.285714  0.428571  0.125000      4.000000
 -0.142857  0.428571  0.125000      4.000000
 -0.428571 -0.428571  0.125000      2.000000
 -0.285714 -0.428571  0.125000      4.000000
 -0.142857 -0.428571  0.125000      4.000000
 -0.285714 -0.285714  0.125000      2.000000
 -0.142857 -0.285714  0.125000      4.000000
 -0.142857 -0.142857  0.125000      2.000000
  0.000000  0.000000  0.250000      2.000000
  0.142857  0.000000  0.250000      4.000000
  0.285714  0.000000  0.250000      4.000000
  0.428571  0.000000  0.250000      4.000000
 -0.428571  0.000000  0.250000      4.000000
 -0.285714  0.000000  0.250000      4.000000
 -0.142857  0.000000  0.250000      4.000000
  0.142857  0.142857  0.250000      2.000000
  0.285714  0.142857  0.250000      4.000000
  0.428571  0.142857  0.250000      4.000000
 -0.428571  0.142857  0.250000      4.000000
 -0.285714  0.142857  0.250000      4.000000
 -0.142857  0.142857  0.250000      4.000000
  0.285714  0.285714  0.250000      2.000000
  0.428571  0.285714  0.250000      4.000000
 -0.428571  0.285714  0.250000      4.000000
[...]
  0.142857  0.000000  0.500000      4.000000
[...]
  -0.28571429  0.00000000  0.25000000       0.010
  -0.14285714  0.00000000  0.25000000       0.010
   0.14285714  0.14285714  0.25000000       0.005
   0.28571429  0.14285714  0.25000000       0.010
   0.42857143  0.14285714  0.25000000       0.010
  -0.42857143  0.14285714  0.25000000       0.010
  -0.28571429  0.14285714  0.25000000       0.010
  -0.14285714  0.14285714  0.25000000       0.010
   0.28571429  0.28571429  0.25000000       0.005
   0.42857143  0.28571429  0.25000000       0.010
  -0.42857143  0.28571429  0.25000000       0.010
[...]
   0.14285714  0.00000000  0.50000000       0.010
   0.28571429  0.00000000  0.50000000       0.010
   0.42857143  0.00000000  0.50000000       0.010
   0.14285714  0.14285714  0.50000000       0.005
   0.28571429  0.14285714  0.50000000       0.010
   0.42857143  0.14285714  0.50000000       0.010
  -0.42857143  0.14285714  0.50000000       0.010
  -0.28571429  0.14285714  0.50000000       0.010
  -0.14285714  0.14285714  0.50000000       0.005
   0.28571429  0.28571429  0.50000000       0.005
   0.42857143  0.28571429  0.50000000       0.010
  -0.42857143  0.28571429  0.50000000       0.010
  -0.28571429  0.28571429  0.50000000       0.005
   0.42857143  0.42857143  0.50000000       0.005
  -0.42857143  0.42857143  0.50000000       0.005

 position of ions in fractional coordinates (direct lattice)
   0.00000000  0.00000000  0.00000000
   0.50000000  0.50000000  0.00000000
   0.00000000  0.00000000  0.50000000
   0.66521000  0.16521000  0.83043000
   0.33479000  0.83479000  0.16957000
   0.00000000  0.50000000  0.00000000
   0.16521000  0.33479000  0.50000000
   0.83479000  0.66521000  0.50000000
   0.50000000  0.50000000  0.50000000
   0.50000000  0.00000000  0.00000000
   0.00000000  0.50000000  0.50000000
   0.50000000  0.00000000  0.50000000

 position of ions in cartesian coordinates  (Angst):
   0.00000000  0.00000000  0.00000000
   1.78294917  2.50867574 -3.10937300
   0.00000000  0.00000000  3.07788500
   3.24549665  0.82891664  2.52985055
   0.32040168  4.18843485 -2.59282656
  -0.87342542  2.50867574 -1.55468650
   0.29289110  1.67975910  1.52319850
   3.27300723  3.33759238 -1.58617451
   1.78294917  2.50867574 -0.03148800
   2.65637459  0.00000000 -1.55468650
  -0.87342542  2.50867574  1.52319850
   2.65637459  0.00000000  1.52319850

 k-point   1 :   0.0000 0.0000 0.0000  plane waves:    5561
 k-point   2 :   0.1429 0.0000 0.0000  plane waves:    5494
 k-point   3 :   0.2857 0.0000 0.0000  plane waves:    5473
 k-point   4 :   0.4286 0.0000 0.0000  plane waves:    5489
 k-point   5 :   0.1429 0.1429 0.0000  plane waves:    5479
 k-point   6 :   0.2857 0.1429 0.0000  plane waves:    5463
 k-point   7 :   0.4286 0.1429 0.0000  plane waves:    5474
 k-point   8 :  -0.4286 0.1429 0.0000  plane waves:    5483
 k-point   9 :  -0.2857 0.1429 0.0000  plane waves:    5484
 k-point  10 :  -0.1429 0.1429 0.0000  plane waves:    5487
 k-point  11 :   0.2857 0.2857 0.0000  plane waves:    5473
 k-point  12 :   0.4286 0.2857 0.0000  plane waves:    5470
 k-point  13 :  -0.4286 0.2857 0.0000  plane waves:    5479
 k-point  14 :  -0.2857 0.2857 0.0000  plane waves:    5479
 k-point  15 :   0.4286 0.4286 0.0000  plane waves:    5476
 k-point  16 :  -0.4286 0.4286 0.0000  plane waves:    5464
 k-point  17 :   0.0000 0.0000 0.1250  plane waves:    5479
 k-point  18 :   0.1429 0.0000 0.1250  plane waves:    5479
 k-point  19 :   0.2857 0.0000 0.1250  plane waves:    5485
 k-point  20 :   0.4286-0.0000 0.1250  plane waves:    5485
 k-point  21 :  -0.4286-0.0000 0.1250  plane waves:    5471
 k-point  22 :  -0.2857 0.0000 0.1250  plane waves:    5476
 k-point  23 :  -0.1429 0.0000 0.1250  plane waves:    5494
 k-point  24 :   0.1429 0.1429 0.1250  plane waves:    5474
 k-point  25 :   0.2857 0.1429 0.1250  plane waves:    5472
 k-point  26 :   0.4286 0.1429 0.1250  plane waves:    5472
 k-point  27 :  -0.4286 0.1429 0.1250  plane waves:    5479
 k-point  28 :  -0.2857 0.1429 0.1250  plane waves:    5475
 k-point  29 :  -0.1429 0.1429 0.1250  plane waves:    5480
 k-point  30 :   0.2857 0.2857 0.1250  plane waves:    5465
 k-point  31 :   0.4286 0.2857 0.1250  plane waves:    5482
 k-point  32 :  -0.4286 0.2857 0.1250  plane waves:    5484
 k-point  33 :  -0.2857 0.2857 0.1250  plane waves:    5490
 k-point  34 :  -0.1429 0.2857 0.1250  plane waves:    5463
 k-point  35 :   0.4286 0.4286 0.1250  plane waves:    5477
 k-point  36 :  -0.4286 0.4286 0.1250  plane waves:    5489
 k-point  37 :  -0.2857 0.4286 0.1250  plane waves:    5474
 k-point  38 :  -0.1429 0.4286 0.1250  plane waves:    5477
 k-point  39 :  -0.4286-0.4286 0.1250  plane waves:    5473
 k-point  40 :  -0.2857-0.4286 0.1250  plane waves:    5476
 k-point  41 :  -0.1429-0.4286 0.1250  plane waves:    5466
 k-point  42 :  -0.2857-0.2857 0.1250  plane waves:    5466
 k-point  43 :  -0.1429-0.2857 0.1250  plane waves:    5467
 k-point  44 :  -0.1429-0.1429 0.1250  plane waves:    5452
 k-point  45 :   0.0000 0.0000 0.2500  plane waves:    5487
 k-point  46 :   0.1429 0.0000 0.2500  plane waves:    5484
 k-point  47 :   0.2857 0.0000 0.2500  plane waves:    5466
 k-point  48 :   0.4286 0.0000 0.2500  plane waves:    5467
 k-point  49 :  -0.4286 0.0000 0.2500  plane waves:    5465
 k-point  50 :  -0.2857 0.0000 0.2500  plane waves:    5471
 k-point  51 :  -0.1429 0.0000 0.2500  plane waves:    5479
 k-point  52 :   0.1429 0.1429 0.2500  plane waves:    5475
 k-point  53 :   0.2857 0.1429 0.2500  plane waves:    5479
 k-point  54 :   0.4286 0.1429 0.2500  plane waves:    5482
 k-point  55 :  -0.4286 0.1429 0.2500  plane waves:    5480
 k-point  56 :  -0.2857 0.1429 0.2500  plane waves:    5467
 k-point  57 :  -0.1429 0.1429 0.2500  plane waves:    5490
 k-point  58 :   0.2857 0.2857 0.2500  plane waves:    5492
 k-point  59 :   0.4286 0.2857 0.2500  plane waves:    5476
 k-point  60 :  -0.4286 0.2857 0.2500  plane waves:    5472
[...]
 k-point 102 :   0.1429 0.0000 0.5000  plane waves:    5479
 k-point 103 :   0.2857 0.0000 0.5000  plane waves:    5466
 k-point 104 :   0.4286 0.0000 0.5000  plane waves:    5480
 k-point 105 :   0.1429 0.1429 0.5000  plane waves:    5479
 k-point 106 :   0.2857 0.1429 0.5000  plane waves:    5481
 k-point 107 :   0.4286 0.1429 0.5000  plane waves:    5471
 k-point 108 :  -0.4286 0.1429 0.5000  plane waves:    5480
 k-point 109 :  -0.2857 0.1429 0.5000  plane waves:    5476
 k-point 110 :  -0.1429 0.1429 0.5000  plane waves:    5468
 k-point 111 :   0.2857 0.2857 0.5000  plane waves:    5467
 k-point 112 :   0.4286 0.2857 0.5000  plane waves:    5478
 k-point 113 :  -0.4286 0.2857 0.5000  plane waves:    5467
 k-point 114 :  -0.2857 0.2857 0.5000  plane waves:    5460
 k-point 115 :   0.4286 0.4286 0.5000  plane waves:    5477
 k-point 116 :  -0.4286 0.4286 0.5000  plane waves:    5466

 maximum and minimum number of plane-waves per node :      2802     2705

 maximum number of plane-waves:      5561
 maximum index in each direction:
   IXMAX=   12   IYMAX=   12   IZMAX=   12
   IXMIN=  -12   IYMIN=  -12   IZMIN=  -12

 parallel 3D FFT for wavefunctions:
    minimum data exchange during FFTs selected (reduces bandwidth)
 parallel 3D FFT for charge:
    minimum data exchange during FFTs selected (reduces bandwidth)

 Broyden mixing: mesh for mixing (old mesh)
   NGX = 25   NGY = 25   NGZ = 25
  (NGX  =100   NGY  =100   NGZ  =100)
  gives a total of  15625 points

 initial charge density was supplied:
 charge density of overlapping atoms calculated
 number of electron     126.0000000 magnetization
 keeping initial charge density in first step

 Maximum index for augmentation-charges        23005 (set IRDMAX)

 First call to EWALD:  gamma=   0.324
 Maximum number of real-space cells 3x 3x 3
 Maximum number of reciprocal cells 3x 3x 3

--------------------------------------- Iteration      1(   1)  ---------------------------------------

 eigenvalue-minimisations  : 18096
 total energy-change (2. order) : 0.1637765E+04  (-0.8941555E+04)
 number of electron     126.0000000 magnetization
 augmentation part      126.0000000 magnetization

 Free energy of the ion-electron system (eV)
  alpha Z        PSCENC =       856.77230994
  Ewald energy   TEWEN  =    -12246.43385538
  -Hartree energ DENC   =     -3160.74611814
  -exchange      EXHF   =         0.00000000
  -V(xc)+E(xc)   XCENC  =       628.79067107
  PAW double counting   =     12139.29562609   -12091.82663909
  entropy T*S    EENTRO =        -0.00084327
  eigenvalues    EBANDS =       265.18130214
  atomic energy  EATOM  =     15246.73248675
  free energy    TOTEN  =      1637.76494011 eV

  energy without entropy =     1637.76578338  energy(sigma->0) =     1637.76536174

[...]

 eigenvalue-minimisations  : 19728
 total energy-change (2. order) :-0.1779519E+04  (-0.1735805E+04)
 number of electron     126.0000000 magnetization
 augmentation part      126.0000000 magnetization

[...]

 eigenvalue-minimisations  :     0
 total energy-change (2. order) : 0.8003553E-09  ( 0.2081361E-07)
 number of electron     126.0000001 magnetization
 augmentation part       19.7559515 magnetization

[...]

 eigenvalue-minimisations  :     0
 total energy-change (2. order) : 0.5202310E-09  (-0.1733465E-08)
 number of electron     126.0000001 magnetization
 augmentation part       19.7559511 magnetization

[...]

 eigenvalue-minimisations  :     0
 total energy-change (2. order) :-0.1433364E-08  ( 0.4638124E-09)
 number of electron     126.0000001 magnetization
 augmentation part       19.7559501 magnetization

[...]

--------------------------------------- Iteration      1(  47)  ---------------------------------------

 eigenvalue-minimisations  :     0
 total energy-change (2. order) :-0.2073648E-09  (-0.2172810E-10)
 number of electron     126.0000001 magnetization
 augmentation part       19.7559503 magnetization

 Free energy of the ion-electron system (eV)
  alpha Z        PSCENC =       856.77230994
  Ewald energy   TEWEN  =    -12246.43385538
  -Hartree energ DENC   =     -3136.05559318
  -exchange      EXHF   =         0.00000000
  -V(xc)+E(xc)   XCENC  =       648.10453597
  PAW double counting   =     38840.63525196   -38798.87950386
  entropy T*S    EENTRO =        -0.00159142
  eigenvalues    EBANDS =     -1560.61267565
  atomic energy  EATOM  =     15246.73248675
  free energy    TOTEN  =      -149.73863488 eV

  energy without entropy =     -149.73704346  energy(sigma->0) =     -149.73783917

  average scaling for gradient   0.9260

 average (electrostatic) potential at core
  the test charge radii are     0.7672  1.0818  0.9892
  (the norm of the test charge is              1.0000)
       1 -23.0473       2 -23.0473       3 -75.7364       4 -74.4662       5 -74.4662
       6 -75.7345       7 -74.4583       8 -74.4583       9 -75.7364      10 -75.7336
      11 -85.3620      12 -85.3728

 E-fermi :  11.2963     XC(G=0): -13.6631     alpha+bet :-19.5092

 Fermi energy:        11.2962794631

 k-point     1 :       0.0000    0.0000    0.0000
  band No.  band energies     occupation
      1     -52.0611      2.00000
      2     -51.9914      2.00000
      3     -51.8111      2.00000
      4     -51.8088      2.00000
      5     -51.3517      2.00000
      6     -51.3271      2.00000
      7     -51.2261      2.00000
      8     -51.2183      2.00000
      9     -26.8834      2.00000
     10     -26.8598      2.00000
     11     -26.7903      2.00000
     12     -26.7323      2.00000
     13     -26.4623      2.00000
     14     -26.4569      2.00000
     15     -25.3271      2.00000
     16     -25.3255      2.00000
     17     -25.3131      2.00000
     18     -25.2396      2.00000
     19     -24.9876      2.00000
     20     -24.9871      2.00000
     21     -24.9844      2.00000
     22     -24.8614      2.00000
     23     -24.8591      2.00000
     24     -24.8575      2.00000
     25     -24.7400      2.00000
     26     -24.7339      2.00000
     27     -24.3802      2.00000
     28     -24.1653      2.00000
     29     -24.1591      2.00000
     30     -24.1546      2.00000
     31     -23.2403      2.00000
     32     -23.2125      2.00000
     33       1.6201      2.00000
     34       3.9502      2.00000
     35       4.7782      2.00000
     36       4.8053      2.00000
     37       4.8161      2.00000
     38       5.0165      2.00000
     39       5.0208      2.00000
     40       6.1866      2.00000
     41       6.1886      2.00000
     42       6.3757      2.00000
     43       6.4023      2.00000
     44       7.1044      2.00000
     45       7.1055      2.00000
     46       7.2536      2.00000
     47       7.4422      2.00000
     48       7.5601      2.00000
     49       7.9841      2.00000
     50       7.9862      2.00000
     51       8.3070      2.00000
     52       8.7835      2.00000
     53       9.0204      2.00000
     54       9.3708      2.00000
     55       9.3740      2.00000
     56       9.8024      2.00000
     57       9.8636      2.00000
     58       9.8641      2.00000
     59      10.3878      2.00000
     60      10.6088      2.00000
[...]
     64      11.4323      0.00000
     65      11.5258      0.00000
     66      11.5290      0.00000
     67      11.6758      0.00000
     68      11.8952      0.00000
     69      12.6205      0.00000
     70      12.6632      0.00000
     71      13.3727      0.00000
     72      13.9483      0.00000
     73      13.9600      0.00000
     74      14.1455      0.00000
     75      14.4285      0.00000
     76      14.4326      0.00000
     77      14.4815      0.00000
     78      15.1383      0.00000

[...]

 k-point   116 :      -0.4286    0.4286    0.5000
  band No.  band energies     occupation
      1     -51.9524      2.00000
      2     -51.9467      2.00000
      3     -51.8411      2.00000
      4     -51.7795      2.00000
      5     -51.5882      2.00000
      6     -51.5517      2.00000
      7     -51.0680      2.00000
      8     -51.0665      2.00000
      9     -27.2073      2.00000
     10     -27.0596      2.00000
     11     -26.8235      2.00000
     12     -26.8212      2.00000
     13     -25.9147      2.00000
     14     -25.8966      2.00000
     15     -25.4097      2.00000
     16     -25.3230      2.00000
     17     -25.2499      2.00000
     18     -25.2477      2.00000
     19     -25.1796      2.00000
     20     -25.0399      2.00000
     21     -24.9687      2.00000
     22     -24.9430      2.00000
     23     -24.9424      2.00000
     24     -24.9193      2.00000
     25     -24.7411      2.00000
     26     -24.7007      2.00000
     27     -24.2744      2.00000
     28     -24.2470      2.00000
     29     -24.2410      2.00000
     30     -24.0923      2.00000
     31     -23.2439      2.00000
     32     -23.2395      2.00000
     33       2.4869      2.00000
     34       4.1349      2.00000
     35       4.1846      2.00000
     36       4.1912      2.00000
     37       4.4664      2.00000
     38       4.5767      2.00000
     39       5.7295      2.00000
     40       5.9059      2.00000
     41       5.9696      2.00000
     42       6.4199      2.00000
     43       6.4454      2.00000
     44       6.5790      2.00000
     45       7.4838      2.00000
     46       7.5162      2.00000
     47       7.6821      2.00000
     48       8.0309      2.00000
     49       8.1683      2.00000
     50       8.2278      2.00000
     51       8.3368      2.00000
     52       8.4807      2.00000
     53       8.8060      2.00000
     54       9.1892      2.00000
     55       9.7515      2.00000
     56       9.7921      2.00000
     57       9.8359      2.00000
     58       9.9490      2.00000
     59       9.9519      2.00000
     60      10.0719      2.00000
[...]
     64      11.3522      0.00008
     65      11.6820      0.00000
     66      11.7162      0.00000
     67      12.1713      0.00000
     68      12.2582      0.00000
     69      12.3471      0.00000
     70      12.9949      0.00000
     71      13.1747      0.00000
     72      13.2738      0.00000
     73      13.5312      0.00000
     74      13.7539      0.00000
     75      14.5838      0.00000
     76      14.7099      0.00000
     77      15.1296      0.00000
     78      15.3847      0.00000

 soft charge-density along one line, spin component           1
         0         1         2         3         4         5         6         7         8         9
 total charge-density along one line

------------------------ aborting loop because EDIFF is reached ----------------------------------------

  FREE ENERGIE OF THE ION-ELECTRON SYSTEM (eV)
  free  energy   TOTEN  =      -149.73863488 eV

  energy  without entropy=     -149.73704346  energy(sigma->0) =     -149.73783917

 writing wavefunctions