 vasp.6.2.0 18Jan21 (build Jan 05 2022 15:41:44) complex

 executed on             LinuxIFC date 2025.05.07  20:27:27

 INCAR:
   SYSTEM = routine with relax: pwdword
   ICHARG = 2
   NPAR = 6
   KPAR = 2
   NCORE = 2
   ADDGRID = T
   PREC = Acc
   ENCUT = 600
   METAGGA = R2SCAN
   LASPH = .TRUE.
   LMIXTAU = .FALSE.
   ALGO = A
   EDIFF = 1E-9
   NELM = 100
   NELMIN = 6
   IALGO = 38
   LREAL = F
   NSW = 0
   ISIF = -1
   ISMEAR = 0
   SIGMA = 0.02
   SYMPREC = 1E-4

 POTCAR:    PAW_PBE B 06Sep2000
 POTCAR:    PAW_PBE Mo_sv 02Feb2006
 POTCAR:    PAW_PBE Si 05Jan2001
|           W    W    AA    RRRRR   N    N  II  N    N   GGGG   !!!           |
|           W    W   A  A   R    R  NN   N  II  NN   N  G    G  !!!           |
|           W    W  A    A  R    R  N N  N  II  N N  N  G       !!!           |
|           W WW W  AAAAAA  RRRRR   N  N N  II  N  N N  G  GGG   !            |
|           WW  WW  A    A  R   R   N   NN  II  N   NN  G    G                |
|           W    W  A    A  R    R  N    N  II  N    N   GGGG   !!!           |
|     For optimal performance we recommend to set                             |
|       NCORE = 2 up to number-of-cores-per-socket                            |
|     This setting can greatly improve the performance of VASP for DFT.       |
|     The default, NCORE=1 might be grossly inefficient on modern             |
|     multi-core architectures or massively parallel machines. Do your        |
|     Unfortunately you need to use the default for GW and RPA                |
|     calculations (for HF NCORE is supported but not extensively tested      |
|     yet).                                                                   |

 POTCAR:    PAW_PBE B 06Sep2000
   VRHFIN =B: s2p1

   TITEL  = PAW_PBE B 06Sep2000
   POMASS =   10.811; ZVAL   =    3.000    mass and valenz
   ENMAX  =  318.614; ENMIN  =  238.960 eV

 POTCAR:    PAW_PBE Mo_sv 02Feb2006
   VRHFIN =Mo: 4p5s4d

   TITEL  = PAW_PBE Mo_sv 02Feb2006
   POMASS =   95.940; ZVAL   =   14.000    mass and valenz
   ENMAX  =  242.676; ENMIN  =  182.007 eV

 POTCAR:    PAW_PBE Si 05Jan2001
   VRHFIN =Si: s2p2

   TITEL  = PAW_PBE Si 05Jan2001
   POMASS =   28.085; ZVAL   =    4.000    mass and valenz
   ENMAX  =  245.345; ENMIN  =  184.009 eV

  PAW_PBE B 06Sep2000                   :
  PAW_PBE Mo_sv 02Feb2006               :
  PAW_PBE Si 05Jan2001                  :

 POSCAR: EA218
  positions in direct lattice

 METAGGA = R2SCA    LMAXTAU =  6    LMIXTAU =  F

 ion  position               nearest neighbor table
   1  0.500  0.000  0.000-  11 2.57  13 2.57  12 2.57  14 2.57   6 2.60   8 2.60   5 2.60   7 2.60
                            10 2.66  16 2.66   9 2.66  15 2.66
   2  0.000  0.000  0.500-  16 2.57  15 2.57   9 2.57  10 2.57   5 2.60   7 2.60   6 2.60   8 2.60
                            14 2.66  13 2.66  12 2.66  11 2.66
   3  0.000  0.500  0.000-  12 2.57  14 2.57  13 2.57  11 2.57   6 2.60   8 2.60   7 2.60   5 2.60
                            10 2.66  16 2.66   9 2.66  15 2.66
   4  0.500  0.500  0.500-   9 2.57  10 2.57  15 2.57  16 2.57   5 2.60   7 2.60   8 2.60   6 2.60
                            12 2.66  11 2.66  14 2.66  13 2.66
   5  0.750  0.250  0.500-   2 2.60   4 2.60   3 2.60   1 2.60  16 2.64   9 2.64  12 2.64  14 2.64
                            10 2.64  15 2.64  13 2.64  11 2.64
   6  0.250  0.250  0.000-  15 2.58   9 2.58  14 2.58  11 2.58  12 2.58  13 2.58  10 2.58  16 2.58
                             1 2.60   3 2.60   4 2.60   2 2.60
   7  0.250  0.750  0.500-   2 2.60   4 2.60   1 2.60   3 2.60  10 2.64  15 2.64  11 2.64  13 2.64
                            16 2.64   9 2.64  14 2.64  12 2.64
   8  0.750  0.750  0.000-  10 2.58  16 2.58  12 2.58  13 2.58  14 2.58  11 2.58   9 2.58  15 2.58
                             1 2.60   3 2.60   2 2.60   4 2.60
   9  0.491  0.256  0.748-  11 2.54  12 2.54   4 2.57   2 2.57  15 2.58   6 2.58   8 2.58   5 2.64
                             7 2.64   1 2.66   3 2.66  16 2.75
  10  0.509  0.744  0.252-  12 2.54  11 2.54   4 2.57   2 2.57  16 2.58   8 2.58   6 2.58   7 2.64
                             5 2.64   1 2.66   3 2.66  15 2.75
  11  0.256  0.509  0.765-   9 2.54  10 2.54   3 2.57   1 2.57  13 2.58   6 2.58   8 2.58   7 2.64
                             5 2.64   4 2.66   2 2.66  14 2.75
  12  0.744  0.491  0.235-  10 2.54   9 2.54   3 2.57   1 2.57  14 2.58   8 2.58   6 2.58   5 2.64
                             7 2.64   4 2.66   2 2.66  13 2.75
  13  0.009  0.756  0.765-  16 2.54  15 2.54   3 2.57   1 2.57  11 2.58   8 2.58   6 2.58   7 2.64
                             5 2.64   2 2.66   4 2.66  12 2.75
  14  0.991  0.244  0.235-  15 2.54  16 2.54   3 2.57   1 2.57  12 2.58   6 2.58   8 2.58   5 2.64
                             7 2.64   2 2.66   4 2.66  11 2.75
  15  0.244  0.009  0.252-  14 2.54  13 2.54   2 2.57   4 2.57   9 2.58   6 2.58   8 2.58   7 2.64
                             5 2.64   1 2.66   3 2.66  10 2.75
  16  0.756  0.991  0.748-  13 2.54  14 2.54   2 2.57   4 2.57  10 2.58   8 2.58   6 2.58   5 2.64
                             7 2.64   1 2.66   3 2.66   9 2.75

  LATTYP: Found a body centered tetragonal cell.
 ALAT       =     7.3549982499
 C/A-ratio  =     1.0081867179

  Lattice vectors:

 A1 = (   6.0135011760,   0.0000000000,  -2.1521979062)
 A2 = (  -2.9821939649,   5.2219455712,  -2.1521979062)
 A3 = (   0.0000000000,   0.0000000000,   6.3870300000)

Analysis of symmetry for initial positions (statically):
 Subroutine PRICEL returns:
 Original cell was already a primitive cell.

 Routine SETGRP: Setting up the symmetry group for a
 body centered tetragonal supercell.

 Subroutine GETGRP returns: Found 16 space group operations
 (whereof  8 operations were pure point group operations)
 out of a pool of 16 trial point group operations.

The static configuration has the point symmetry C_4h.
 The point group associated with its full space group is D_4h.

Analysis of symmetry for dynamics (positions and initial velocities):
 Subroutine PRICEL returns:
 Original cell was already a primitive cell.

 Routine SETGRP: Setting up the symmetry group for a
 body centered tetragonal supercell.

 Subroutine GETGRP returns: Found 16 space group operations
 (whereof  8 operations were pure point group operations)
 out of a pool of 16 trial point group operations.

The dynamic configuration has the point symmetry C_4h.
 The point group associated with its full space group is D_4h.

 Subroutine INISYM returns: Found 16 space group operations
 (whereof  8 operations are pure point group operations),
 and found     1 'primitive' translations

                                     Primitive cell

  volume of cell :     200.5666

  direct lattice vectors                    reciprocal lattice vectors
     6.013501176  0.000000000 -2.152197906     0.166292476  0.094967749  0.000000000
    -2.982193965  5.221945571 -2.152197906     0.000000000  0.191499507  0.000000000
     0.000000000  0.000000000  6.387030000     0.056034545  0.096529095  0.156567293

  length of vectors
     6.387030000  6.387030000  6.387030000     0.191499507  0.191499507  0.192278584

  position of ions in fractional coordinates (direct lattice)
     0.500000000  0.000000000  1.000000000
     0.000000000  0.000000000  0.500000000
     0.000000000  0.500000000  1.000000000
     0.500000000  0.500000000  0.500000000
     0.750000000  0.250000000  0.500000000
     0.250000000  0.250000000  1.000000000
     0.250000000  0.750000000  0.500000000
     0.750000000  0.750000000  1.000000000
     0.491460000  0.256170000  0.747630000
     0.508540000  0.743830000  0.252370000
     0.256170000  0.508540000  0.764710000
     0.743830000  0.491460000  0.235290000
     0.008540000  0.756170000  0.764710000
     0.991460000  0.243830000  0.235290000
     0.243830000  0.008540000  0.252370000
     0.756170000  0.991460000  0.747630000

  ion indices of the primitive-cell ions
   primitive index   ion index
                 1           1
                 2           2
                 3           3
                 4           4
                 5           5
                 6           6
                 7           7
                 8           8
                 9           9
                10          10
                11          11
                12          12
                13          13
                14          14
                15          15
                16          16

 KPOINTS: EA

Automatic generation of k-mesh.
 Grid dimensions read from file:
 generate k-points for:    7    7    7

 Generating k-lattice:

  Cartesian coordinates                     Fractional coordinates (reciprocal lattice)
     0.023756068  0.013566821  0.000000000     0.142857143  0.000000000  0.000000000
     0.000000000  0.027357072  0.000000000     0.000000000  0.142857143  0.000000000
     0.008004935  0.013789871  0.022366756     0.000000000 -0.000000000  0.142857143

  Length of vectors
     0.027357072  0.027357072  0.027468369

  Shift w.r.t. Gamma in fractional coordinates (k-lattice)
     0.000000000  0.000000000  0.000000000

 Subroutine IBZKPT returns following result:

 Found     40 irreducible k-points:

 Following reciprocal coordinates:
            Coordinates               Weight
  0.000000  0.000000  0.000000      1.000000
  0.142857  0.000000  0.000000      8.000000
  0.285714 -0.000000  0.000000      8.000000
  0.428571  0.000000  0.000000      8.000000
  0.142857  0.142857  0.000000      8.000000
  0.285714  0.142857  0.000000     16.000000
  0.428571  0.142857  0.000000     16.000000
 -0.428571  0.142857  0.000000     16.000000
 -0.285714  0.142857  0.000000     16.000000
 -0.142857  0.142857  0.000000      4.000000
  0.285714  0.285714  0.000000      8.000000
  0.428571  0.285714  0.000000     16.000000
 -0.428571  0.285714  0.000000     16.000000
 -0.285714  0.285714  0.000000      4.000000
  0.428571  0.428571  0.000000      8.000000
 -0.428571  0.428571  0.000000      4.000000
  0.142857  0.142857  0.142857      8.000000
  0.285714  0.142857  0.142857     16.000000
 -0.142857  0.142857  0.142857      4.000000
  0.285714  0.285714  0.142857      8.000000
  0.428571  0.285714  0.142857      8.000000
 -0.285714  0.285714  0.142857      8.000000
 -0.142857  0.285714  0.142857      8.000000
 -0.428571  0.428571  0.142857      8.000000
 -0.285714  0.428571  0.142857     16.000000
 -0.142857  0.428571  0.142857      8.000000
 -0.428571 -0.428571  0.142857      8.000000
 -0.285714 -0.428571  0.142857     16.000000
 -0.142857 -0.428571  0.142857      8.000000
 -0.285714 -0.285714  0.142857      8.000000
 -0.142857 -0.285714  0.142857      8.000000
 -0.142857 -0.142857  0.142857      2.000000
 -0.285714  0.285714  0.285714      4.000000
 -0.428571  0.428571  0.285714      8.000000
 -0.285714  0.428571  0.285714      8.000000
 -0.428571 -0.428571  0.285714      8.000000
 -0.285714 -0.428571  0.285714      8.000000
 -0.285714 -0.285714  0.285714      2.000000
 -0.428571  0.428571  0.428571      4.000000
 -0.428571 -0.428571  0.428571      2.000000

 Following cartesian coordinates:
            Coordinates               Weight
[...]
     6.013501176  0.000000000 -2.152197906     0.166292476  0.094967749  0.000000000
    -2.982193965  5.221945571 -2.152197906     0.000000000  0.191499507  0.000000000
     0.000000000  0.000000000  6.387030000     0.056034545  0.096529095  0.156567293

  length of vectors
     6.387030000  6.387030000  6.387030000     0.191499507  0.191499507  0.192278584

 k-points in units of 2pi/SCALE and weight: EA
   0.00000000  0.00000000  0.00000000       0.003
   0.02375607  0.01356682  0.00000000       0.023
   0.04751214  0.02713364  0.00000000       0.023
   0.07126820  0.04070046  0.00000000       0.023
   0.02375607  0.04092389  0.00000000       0.023
   0.04751214  0.05449072  0.00000000       0.047
   0.07126820  0.06805754  0.00000000       0.047
  -0.07126820 -0.01334339  0.00000000       0.047
  -0.04751214  0.00022343  0.00000000       0.047
  -0.02375607  0.01379025  0.00000000       0.012
   0.04751214  0.08184779  0.00000000       0.023
   0.07126820  0.09541461  0.00000000       0.047
  -0.07126820  0.01401368  0.00000000       0.047
  -0.04751214  0.02758050  0.00000000       0.012
   0.07126820  0.12277168  0.00000000       0.023
  -0.07126820  0.04137075  0.00000000       0.012
   0.03176100  0.05471376  0.02236676       0.023
   0.05551707  0.06828059  0.02236676       0.047
  -0.01575113  0.02758012  0.02236676       0.012
   0.05551707  0.09563766  0.02236676       0.023
   0.07927314  0.10920448  0.02236676       0.023
  -0.03950720  0.04137037  0.02236676       0.023
  -0.01575113  0.05493719  0.02236676       0.023
  -0.06326327  0.05516062  0.02236676       0.023
  -0.03950720  0.06872745  0.02236676       0.047
  -0.01575113  0.08229427  0.02236676       0.023
  -0.06326327 -0.10898181  0.02236676       0.023
  -0.03950720 -0.09541499  0.02236676       0.047
  -0.01575113 -0.08184817  0.02236676       0.023
  -0.03950720 -0.06805792  0.02236676       0.023
  -0.01575113 -0.05449110  0.02236676       0.023
  -0.01575113 -0.02713402  0.02236676       0.006
  -0.03150227  0.05516024  0.04473351       0.012
  -0.05525833  0.06895049  0.04473351       0.023
  -0.03150227  0.08251732  0.04473351       0.023
  -0.05525833 -0.09519194  0.04473351       0.023
  -0.03150227 -0.08162512  0.04473351       0.023
  -0.03150227 -0.05426805  0.04473351       0.006
  -0.04725340  0.08274037  0.06710027       0.012
  -0.04725340 -0.08140207  0.06710027       0.006

 k-points in reciprocal lattice and weights: EA
   0.00000000  0.00000000  0.00000000       0.003
   0.14285714  0.00000000  0.00000000       0.023
   0.28571429 -0.00000000  0.00000000       0.023
   0.42857143  0.00000000  0.00000000       0.023
   0.14285714  0.14285714  0.00000000       0.023
   0.28571429  0.14285714  0.00000000       0.047
   0.42857143  0.14285714  0.00000000       0.047
  -0.42857143  0.14285714  0.00000000       0.047
  -0.28571429  0.14285714  0.00000000       0.047
  -0.14285714  0.14285714  0.00000000       0.012
   0.28571429  0.28571429  0.00000000       0.023
   0.42857143  0.28571429  0.00000000       0.047
  -0.42857143  0.28571429  0.00000000       0.047
  -0.28571429  0.28571429  0.00000000       0.012
   0.42857143  0.42857143  0.00000000       0.023
  -0.42857143  0.42857143  0.00000000       0.012
   0.14285714  0.14285714  0.14285714       0.023
   0.28571429  0.14285714  0.14285714       0.047
  -0.14285714  0.14285714  0.14285714       0.012
   0.28571429  0.28571429  0.14285714       0.023
   0.42857143  0.28571429  0.14285714       0.023
  -0.28571429  0.28571429  0.14285714       0.023
  -0.14285714  0.28571429  0.14285714       0.023
  -0.42857143  0.42857143  0.14285714       0.023
  -0.28571429  0.42857143  0.14285714       0.047
  -0.14285714  0.42857143  0.14285714       0.023
  -0.42857143 -0.42857143  0.14285714       0.023
  -0.28571429 -0.42857143  0.14285714       0.047
  -0.14285714 -0.42857143  0.14285714       0.023
  -0.28571429 -0.28571429  0.14285714       0.023
  -0.14285714 -0.28571429  0.14285714       0.023
  -0.14285714 -0.14285714  0.14285714       0.006
  -0.28571429  0.28571429  0.28571429       0.012
  -0.42857143  0.42857143  0.28571429       0.023
  -0.28571429  0.42857143  0.28571429       0.023
  -0.42857143 -0.42857143  0.28571429       0.023
  -0.28571429 -0.42857143  0.28571429       0.023
  -0.28571429 -0.28571429  0.28571429       0.006
  -0.42857143  0.42857143  0.42857143       0.012
  -0.42857143 -0.42857143  0.42857143       0.006

 position of ions in fractional coordinates (direct lattice)
   0.50000000  0.00000000  0.00000000
   0.00000000  0.00000000  0.50000000
   0.00000000  0.50000000  0.00000000
   0.50000000  0.50000000  0.50000000
   0.75000000  0.25000000  0.50000000
   0.25000000  0.25000000  0.00000000
   0.25000000  0.75000000  0.50000000
   0.75000000  0.75000000  0.00000000
   0.49146000  0.25617000  0.74763000
   0.50854000  0.74383000  0.25237000
   0.25617000  0.50854000  0.76471000
   0.74383000  0.49146000  0.23529000
   0.00854000  0.75617000  0.76471000
   0.99146000  0.24383000  0.23529000
   0.24383000  0.00854000  0.25237000
   0.75617000  0.99146000  0.74763000

 position of ions in cartesian coordinates  (Angst):
   3.00675059  0.00000000 -1.07609895
   0.00000000  0.00000000  3.19351500
  -1.49109698  2.61097279 -1.07609895
   1.51565361  2.61097279  1.04131709
   3.76457739  1.30548639  1.04131709
   0.75782680  1.30548639 -1.07609895
  -0.73327018  3.91645918  1.04131709
   2.27348041  3.91645918 -3.22829686
   2.19144666  1.33770580  3.16608752
   0.83986055  3.88423977 -1.08345333
   0.02391368  2.65556820  3.23841845
   3.00739353  2.56637737 -1.15578426
  -2.20369031  3.94867858  3.23841845
   5.23499752  1.27326699 -1.15578426
   1.44080406  0.04459542  1.06874458
   1.59050316  5.17735016  1.01388961

 k-point   1 :   0.0000 0.0000 0.0000  plane waves:    6707
 k-point   2 :   0.1429 0.0000 0.0000  plane waves:    6700
 k-point   3 :   0.2857-0.0000 0.0000  plane waves:    6698
 k-point   4 :   0.4286 0.0000 0.0000  plane waves:    6706
 k-point   5 :   0.1429 0.1429 0.0000  plane waves:    6695
 k-point   6 :   0.2857 0.1429 0.0000  plane waves:    6693
 k-point   7 :   0.4286 0.1429 0.0000  plane waves:    6705
 k-point   8 :  -0.4286 0.1429 0.0000  plane waves:    6682
 k-point   9 :  -0.2857 0.1429 0.0000  plane waves:    6703
 k-point  10 :  -0.1429 0.1429 0.0000  plane waves:    6683
 k-point  11 :   0.2857 0.2857 0.0000  plane waves:    6696
 k-point  12 :   0.4286 0.2857 0.0000  plane waves:    6693
 k-point  13 :  -0.4286 0.2857 0.0000  plane waves:    6681
 k-point  14 :  -0.2857 0.2857 0.0000  plane waves:    6699
 k-point  15 :   0.4286 0.4286 0.0000  plane waves:    6700
 k-point  16 :  -0.4286 0.4286 0.0000  plane waves:    6712
 k-point  17 :   0.1429 0.1429 0.1429  plane waves:    6677
 k-point  18 :   0.2857 0.1429 0.1429  plane waves:    6680
 k-point  19 :  -0.1429 0.1429 0.1429  plane waves:    6707
 k-point  20 :   0.2857 0.2857 0.1429  plane waves:    6682
 k-point  21 :   0.4286 0.2857 0.1429  plane waves:    6687
 k-point  22 :  -0.2857 0.2857 0.1429  plane waves:    6682
 k-point  23 :  -0.1429 0.2857 0.1429  plane waves:    6692
 k-point  24 :  -0.4286 0.4286 0.1429  plane waves:    6699
 k-point  25 :  -0.2857 0.4286 0.1429  plane waves:    6690
 k-point  26 :  -0.1429 0.4286 0.1429  plane waves:    6698
 k-point  27 :  -0.4286-0.4286 0.1429  plane waves:    6703
 k-point  28 :  -0.2857-0.4286 0.1429  plane waves:    6695
 k-point  29 :  -0.1429-0.4286 0.1429  plane waves:    6692
 k-point  30 :  -0.2857-0.2857 0.1429  plane waves:    6693
 k-point  31 :  -0.1429-0.2857 0.1429  plane waves:    6705
 k-point  32 :  -0.1429-0.1429 0.1429  plane waves:    6719
 k-point  33 :  -0.2857 0.2857 0.2857  plane waves:    6689
 k-point  34 :  -0.4286 0.4286 0.2857  plane waves:    6690
 k-point  35 :  -0.2857 0.4286 0.2857  plane waves:    6687
 k-point  36 :  -0.4286-0.4286 0.2857  plane waves:    6702
 k-point  37 :  -0.2857-0.4286 0.2857  plane waves:    6708
 k-point  38 :  -0.2857-0.2857 0.2857  plane waves:    6695
 k-point  39 :  -0.4286 0.4286 0.4286  plane waves:    6674
 k-point  40 :  -0.4286-0.4286 0.4286  plane waves:    6678

 maximum and minimum number of plane-waves per node :      3373     3323

 maximum number of plane-waves:      6719
 maximum index in each direction:
   IXMAX=   13   IYMAX=   13   IZMAX=   12
   IXMIN=  -13   IYMIN=  -13   IZMIN=  -13

 parallel 3D FFT for wavefunctions:
    minimum data exchange during FFTs selected (reduces bandwidth)
 parallel 3D FFT for charge:
    minimum data exchange during FFTs selected (reduces bandwidth)

 Broyden mixing: mesh for mixing (old mesh)
   NGX = 25   NGY = 25   NGZ = 25
  (NGX  =108   NGY  =108   NGZ  =108)
  gives a total of  15625 points

 initial charge density was supplied:
 charge density of overlapping atoms calculated
 number of electron     100.0000000 magnetization
 keeping initial charge density in first step

 Maximum index for augmentation-charges        22228 (set IRDMAX)

 First call to EWALD:  gamma=   0.303
 Maximum number of real-space cells 3x 3x 3
 Maximum number of reciprocal cells 3x 3x 3

--------------------------------------- Iteration      1(   1)  ---------------------------------------

 eigenvalue-minimisations  :  5208
 total energy-change (2. order) : 0.7202679E+03  (-0.6244883E+04)
 number of electron     100.0000000 magnetization
 augmentation part      100.0000000 magnetization

 Free energy of the ion-electron system (eV)
  alpha Z        PSCENC =       341.82453305
  Ewald energy   TEWEN  =     -7016.14309087
  -Hartree energ DENC   =     -1940.63982630
  -exchange      EXHF   =         0.00000000
  -V(xc)+E(xc)   XCENC  =       305.70254570
  PAW double counting   =      6777.72328542    -6678.88786135
  entropy T*S    EENTRO =        -0.00059602
  eigenvalues    EBANDS =       372.34797462
  atomic energy  EATOM  =      8558.34096249
  free energy    TOTEN  =       720.26792674 eV

  energy without entropy =      720.26852276  energy(sigma->0) =      720.26822475

[...]

 eigenvalue-minimisations  :  5520
 total energy-change (2. order) :-0.8969216E+03  (-0.8772779E+03)
 number of electron     100.0000000 magnetization
 augmentation part      100.0000000 magnetization

[...]

 eigenvalue-minimisations  :     0
 total energy-change (2. order) : 0.1153239E-08  (-0.1602934E-08)
 number of electron     100.0000003 magnetization
 augmentation part        8.0500025 magnetization

[...]

--------------------------------------- Iteration      1(  40)  ---------------------------------------

 eigenvalue-minimisations  :     0
 total energy-change (2. order) :-0.1127773E-09  (-0.9639909E-09)
 number of electron     100.0000003 magnetization
 augmentation part        8.0500026 magnetization

 Free energy of the ion-electron system (eV)
  alpha Z        PSCENC =       341.82453305
  Ewald energy   TEWEN  =     -7016.14309087
  -Hartree energ DENC   =     -1848.38235367
  -exchange      EXHF   =         0.00000000
  -V(xc)+E(xc)   XCENC  =       315.62697524
  PAW double counting   =     13013.73156935   -12925.14836592
  entropy T*S    EENTRO =        -0.00356609
  eigenvalues    EBANDS =      -631.40030070
  atomic energy  EATOM  =      8558.34096249
  free energy    TOTEN  =      -191.55363710 eV

  energy without entropy =     -191.55007101  energy(sigma->0) =     -191.55185405

  average scaling for gradient   1.9972

 average (electrostatic) potential at core
  the test charge radii are     0.7672  1.0818  0.9892
  (the norm of the test charge is              1.0000)
       1 -24.1000       2 -24.1000       3 -24.1000       4 -24.1000       5 -75.8278
       6 -75.6989       7 -75.8278       8 -75.6989       9 -82.1018      10 -82.1018
      11 -82.1018      12 -82.1018      13 -82.1018      14 -82.1018      15 -82.1018
      16 -82.1018

 E-fermi :  11.1882     XC(G=0): -13.0676     alpha+bet :-18.0114

 Fermi energy:        11.1881773111

 k-point     1 :       0.0000    0.0000    0.0000
  band No.  band energies     occupation
      1     -51.8825      2.00000
      2     -51.8794      2.00000
      3     -51.7905      2.00000
      4     -51.7873      2.00000
      5     -25.3769      2.00000
      6     -25.3528      2.00000
      7     -25.3527      2.00000
      8     -25.3489      2.00000
      9     -25.3488      2.00000
     10     -25.3456      2.00000
     11     -25.3077      2.00000
     12     -25.2648      2.00000
     13     -25.2640      2.00000
     14     -25.2639      2.00000
     15     -25.2511      2.00000
     16     -25.2511      2.00000
     17      -3.5088      2.00000
     18      -0.0274      2.00000
     19      -0.0274      2.00000
     20       0.6244      2.00000
     21       1.3869      2.00000
     22       2.0484      2.00000
     23       2.0485      2.00000
     24       2.0864      2.00000
     25       2.6186      2.00000
     26       2.6186      2.00000
     27       2.9505      2.00000
     28       3.8375      2.00000
     29       3.9924      2.00000
     30       4.7878      2.00000
     31       5.1666      2.00000
     32       6.6768      2.00000
     33       6.6769      2.00000
     34       6.7738      2.00000
     35       7.0747      2.00000
     36       7.0747      2.00000
     37       7.3121      2.00000
     38       7.3121      2.00000
     39       7.4710      2.00000
     40       7.6462      2.00000
     41       9.6025      2.00000
     42       9.6025      2.00000
     43      10.0890      2.00000
     44      10.1049      2.00000
     45      10.1049      2.00000
     46      10.3280      2.00000
     47      10.4300      2.00000
     48      10.5684      2.00000
     49      10.6960      2.00000
     50      11.0753      2.00000
     51      11.1341      1.99987
     52      11.1904      0.87620
     53      11.2353      0.00087
     54      11.2876      0.00000
     55      11.9623      0.00000
     56      12.5589      0.00000
     57      12.5990      0.00000
     58      12.5990      0.00000
     59      12.8035      0.00000
     60      13.4599      0.00000

[...]

 k-point    40 :      -0.4286   -0.4286    0.4286
  band No.  band energies     occupation
      1     -51.8823      2.00000
      2     -51.8797      2.00000
      3     -51.7904      2.00000
      4     -51.7874      2.00000
      5     -25.3774      2.00000
      6     -25.3589      2.00000
      7     -25.3588      2.00000
      8     -25.3434      2.00000
      9     -25.3433      2.00000
     10     -25.3384      2.00000
     11     -25.3099      2.00000
     12     -25.2697      2.00000
     13     -25.2581      2.00000
     14     -25.2580      2.00000
     15     -25.2567      2.00000
     16     -25.2566      2.00000
     17      -1.6818      2.00000
     18      -0.8496      2.00000
     19      -0.8496      2.00000
     20      -0.6440      2.00000
     21      -0.0691      2.00000
     22       0.7458      2.00000
     23       2.0769      2.00000
     24       2.0770      2.00000
     25       2.4468      2.00000
     26       4.0047      2.00000
     27       5.0211      2.00000
     28       5.6479      2.00000
     29       5.6479      2.00000
     30       5.9337      2.00000
     31       5.9352      2.00000
     32       5.9352      2.00000
     33       6.1745      2.00000
     34       6.1746      2.00000
     35       6.1812      2.00000
     36       6.3329      2.00000
     37       6.4996      2.00000
     38       6.5206      2.00000
     39       9.1047      2.00000
     40       9.1048      2.00000
     41       9.2921      2.00000
     42       9.2921      2.00000
     43       9.4935      2.00000
     44       9.8011      2.00000
     45      10.2683      2.00000
     46      10.2683      2.00000
     47      10.5152      2.00000
     48      10.7532      2.00000
     49      10.9480      2.00000
     50      10.9892      2.00000
     51      11.0037      2.00000
     52      11.0265      2.00000
     53      11.0265      2.00000
     54      11.2647      0.00000
     55      11.3791      0.00000
     56      11.7706      0.00000
     57      11.9101      0.00000
     58      11.9101      0.00000
     59      12.7114      0.00000
     60      13.5318      0.00000

 soft charge-density along one line, spin component           1
         0         1         2         3         4         5         6         7         8         9
 total charge-density along one line

------------------------ aborting loop because EDIFF is reached ----------------------------------------

  FREE ENERGIE OF THE ION-ELECTRON SYSTEM (eV)
  free  energy   TOTEN  =      -191.55363710 eV

  energy  without entropy=     -191.55007101  energy(sigma->0) =     -191.55185405

 writing wavefunctions