 vasp.6.2.0 18Jan21 (build Jan 05 2022 15:41:44) complex

 executed on             LinuxIFC date 2025.05.07  15:26:21

 INCAR:
   SYSTEM = routine with relax: pwdword
   ICHARG = 2
   NPAR = 6
   KPAR = 2
   NCORE = 2
   ADDGRID = T
   PREC = Acc
   ENCUT = 600
   METAGGA = R2SCAN
   LASPH = .TRUE.
   LMIXTAU = .FALSE.
   ALGO = A
   EDIFF = 1E-9
   NELM = 100
   NELMIN = 6
   IALGO = 38
   LREAL = F
   NSW = 0
   ISIF = -1
   ISMEAR = 0
   SIGMA = 0.02

 POTCAR:    PAW_PBE B 06Sep2000
 POTCAR:    PAW_PBE Mo_sv 02Feb2006
 POTCAR:    PAW_PBE Si 05Jan2001
|           W    W    AA    RRRRR   N    N  II  N    N   GGGG   !!!           |
|           W    W   A  A   R    R  NN   N  II  NN   N  G    G  !!!           |
|           W    W  A    A  R    R  N N  N  II  N N  N  G       !!!           |
|           W WW W  AAAAAA  RRRRR   N  N N  II  N  N N  G  GGG   !            |
|           WW  WW  A    A  R   R   N   NN  II  N   NN  G    G                |
|           W    W  A    A  R    R  N    N  II  N    N   GGGG   !!!           |
|     For optimal performance we recommend to set                             |
|       NCORE = 2 up to number-of-cores-per-socket                            |
|     This setting can greatly improve the performance of VASP for DFT.       |
|     The default, NCORE=1 might be grossly inefficient on modern             |
|     multi-core architectures or massively parallel machines. Do your        |
|     Unfortunately you need to use the default for GW and RPA                |
|     calculations (for HF NCORE is supported but not extensively tested      |
|     yet).                                                                   |

 POTCAR:    PAW_PBE B 06Sep2000
   VRHFIN =B: s2p1

   TITEL  = PAW_PBE B 06Sep2000
   POMASS =   10.811; ZVAL   =    3.000    mass and valenz
   ENMAX  =  318.614; ENMIN  =  238.960 eV

 POTCAR:    PAW_PBE Mo_sv 02Feb2006
   VRHFIN =Mo: 4p5s4d

   TITEL  = PAW_PBE Mo_sv 02Feb2006
   POMASS =   95.940; ZVAL   =   14.000    mass and valenz
   ENMAX  =  242.676; ENMIN  =  182.007 eV

 POTCAR:    PAW_PBE Si 05Jan2001
   VRHFIN =Si: s2p2

   TITEL  = PAW_PBE Si 05Jan2001
   POMASS =   28.085; ZVAL   =    4.000    mass and valenz
   ENMAX  =  245.345; ENMIN  =  184.009 eV

  PAW_PBE B 06Sep2000                   :
  PAW_PBE Mo_sv 02Feb2006               :
  PAW_PBE Si 05Jan2001                  :

 POSCAR: EA48
  positions in direct lattice

 METAGGA = R2SCA    LMAXTAU =  6    LMIXTAU =  F

 ion  position               nearest neighbor table
   1  0.250  0.750  0.500-  10 2.45   7 2.45   4 2.45   9 2.45   5 2.54   8 2.54   6 2.54   3 2.54

   2  0.750  0.250  0.500-   7 2.45  10 2.45   9 2.45   4 2.45   3 2.54   6 2.54   8 2.54   5 2.54

   3  0.377  0.877  0.254-   5 2.41   2 2.54   1 2.54   7 2.56  10 2.56
   4  0.000  0.000  0.500-  11 2.45  12 2.45   1 2.45   2 2.45   6 2.56   8 2.56   7 3.46  10 3.46
                             7 3.46  10 3.46
   5  0.623  0.123  0.746-   3 2.41   1 2.54   2 2.54   7 2.56  10 2.56
   6  0.877  0.623  0.500-   8 2.41   2 2.54   1 2.54   9 2.56   4 2.56
   7  0.000  0.500  0.000-   1 2.45   2 2.45  12 2.45  11 2.45   5 2.56   3 2.56   9 3.46   4 3.46
                             4 3.46   9 3.46
   8  0.123  0.377  0.500-   6 2.41   2 2.54   1 2.54   9 2.56   4 2.56
   9  0.500  0.500  0.500-  12 2.45  11 2.45   1 2.45   2 2.45   6 2.56   8 2.56   7 3.46  10 3.46
                            10 3.46   7 3.46
  10  0.500  0.000  0.000-   2 2.45   1 2.45  12 2.45  11 2.45   5 2.56   3 2.56   9 3.46   4 3.46
                             9 3.46   4 3.46
  11  0.250  0.250  0.000-   9 2.45   4 2.45  10 2.45   7 2.45
  12  0.750  0.750  0.000-   4 2.45   9 2.45  10 2.45   7 2.45

  Warning from LATTYP: Got some problem with cell dimensions!
  Tried to take original basis but could not verify dimensions!
  LATTYP: Found a base centered monoclinic cell.
 ALAT       =     8.9295426708
 B/A-ratio  =     1.0957252894
 C/A-ratio  =     0.7417125989
 COS(beta)  =    -0.6741048375

  Lattice vectors:

 A1 = (  -5.8998888118,   0.0000000000,   3.0097761663)
 A2 = (   2.2132327227,  -5.4690299786,   3.0097761663)
 A3 = (   3.6866560890,   5.4690299786,   0.6036976675)

Analysis of symmetry for initial positions (statically):
 Subroutine PRICEL returns:
 Original cell was already a primitive cell.

 Routine SETGRP: Setting up the symmetry group for a
 base centered monoclinic supercell.

 Subroutine GETGRP returns: Found  4 space group operations
 (whereof  2 operations were pure point group operations)
 out of a pool of  4 trial point group operations.

The static configuration has the point symmetry S_2 .
 The point group associated with its full space group is C_2h.

Analysis of symmetry for dynamics (positions and initial velocities):
 Subroutine PRICEL returns:
 Original cell was already a primitive cell.

 Routine SETGRP: Setting up the symmetry group for a
 base centered monoclinic supercell.

 Subroutine GETGRP returns: Found  4 space group operations
 (whereof  2 operations were pure point group operations)
 out of a pool of  4 trial point group operations.

The dynamic configuration has the point symmetry S_2 .
 The point group associated with its full space group is C_2h.

 Subroutine INISYM returns: Found  4 space group operations
 (whereof  2 operations are pure point group operations),
 and found     1 'primitive' translations

                                     Primitive cell

  volume of cell :     213.7102

  direct lattice vectors                    reciprocal lattice vectors
     5.899888812  0.000000000 -3.009776166     0.169494720  0.068591919  0.000000000
    -2.213232723  5.469029979 -3.009776166     0.000000000  0.182847782  0.000000000
     0.000000000  0.000000000  6.623250000     0.077022786  0.114260706  0.150983279

  length of vectors
     6.623250000  6.623250000  6.623250000     0.182847782  0.182847782  0.204411274

  position of ions in fractional coordinates (direct lattice)
     0.250000000  0.750000000  0.500000000
     0.750000000  0.250000000  0.500000000
     0.377040000  0.877040000  0.254080000
     0.000000000  0.000000000  0.500000000
     0.622960000  0.122960000  0.745920000
     0.877040000  0.622960000  0.500000000
     1.000000000  0.500000000  0.000000000
     0.122960000  0.377040000  0.500000000
     0.500000000  0.500000000  0.500000000
     0.500000000  0.000000000  1.000000000
     0.250000000  0.250000000  1.000000000
     0.750000000  0.750000000  1.000000000

  ion indices of the primitive-cell ions
   primitive index   ion index
                 1           1
                 2           2
                 3           3
                 4           4
                 5           5
                 6           6
                 7           7
                 8           8
                 9           9
                10          10
                11          11
                12          12

 KPOINTS: EA

Automatic generation of k-mesh.
 Grid dimensions read from file:
 generate k-points for:    7    7    7

 Generating k-lattice:

  Cartesian coordinates                     Fractional coordinates (reciprocal lattice)
     0.024213531  0.009798846  0.000000000     0.142857143 -0.000000000  0.000000000
     0.000000000  0.026121112  0.000000000     0.000000000  0.142857143  0.000000000
     0.011003255  0.016322958  0.021569040    -0.000000000  0.000000000  0.142857143

  Length of vectors
     0.026121112  0.026121112  0.029201611

  Shift w.r.t. Gamma in fractional coordinates (k-lattice)
     0.000000000  0.000000000  0.000000000

 Subroutine IBZKPT returns following result:

 Found    100 irreducible k-points:

 Following reciprocal coordinates:
            Coordinates               Weight
  0.000000  0.000000  0.000000      1.000000
  0.142857 -0.000000  0.000000      4.000000
  0.285714 -0.000000  0.000000      4.000000
  0.428571 -0.000000  0.000000      4.000000
  0.142857  0.142857  0.000000      2.000000
  0.285714  0.142857  0.000000      4.000000
  0.428571  0.142857  0.000000      4.000000
 -0.428571  0.142857  0.000000      4.000000
 -0.285714  0.142857  0.000000      4.000000
 -0.142857  0.142857  0.000000      2.000000
  0.285714  0.285714  0.000000      2.000000
  0.428571  0.285714  0.000000      4.000000
 -0.428571  0.285714  0.000000      4.000000
 -0.285714  0.285714  0.000000      2.000000
  0.428571  0.428571  0.000000      2.000000
 -0.428571  0.428571  0.000000      2.000000
 -0.000000 -0.000000  0.142857      2.000000
  0.142857 -0.000000  0.142857      4.000000
  0.285714  0.000000  0.142857      4.000000
  0.428571 -0.000000  0.142857      4.000000
 -0.428571 -0.000000  0.142857      4.000000
 -0.285714 -0.000000  0.142857      4.000000
 -0.142857 -0.000000  0.142857      4.000000
  0.142857  0.142857  0.142857      2.000000
  0.285714  0.142857  0.142857      4.000000
  0.428571  0.142857  0.142857      4.000000
 -0.428571  0.142857  0.142857      4.000000
 -0.285714  0.142857  0.142857      4.000000
 -0.142857  0.142857  0.142857      4.000000
  0.285714  0.285714  0.142857      2.000000
  0.428571  0.285714  0.142857      4.000000
 -0.428571  0.285714  0.142857      4.000000
 -0.285714  0.285714  0.142857      4.000000
 -0.142857  0.285714  0.142857      4.000000
  0.428571  0.428571  0.142857      2.000000
 -0.428571  0.428571  0.142857      4.000000
 -0.285714  0.428571  0.142857      4.000000
 -0.142857  0.428571  0.142857      4.000000
 -0.428571 -0.428571  0.142857      2.000000
 -0.285714 -0.428571  0.142857      4.000000
 -0.142857 -0.428571  0.142857      4.000000
 -0.285714 -0.285714  0.142857      2.000000
 -0.142857 -0.285714  0.142857      4.000000
 -0.142857 -0.142857  0.142857      2.000000
  0.000000  0.000000  0.285714      2.000000
  0.142857 -0.000000  0.285714      4.000000
  0.285714 -0.000000  0.285714      4.000000
  0.428571 -0.000000  0.285714      4.000000
 -0.428571  0.000000  0.285714      4.000000
 -0.285714 -0.000000  0.285714      4.000000
 -0.142857 -0.000000  0.285714      4.000000
  0.142857  0.142857  0.285714      2.000000
  0.285714  0.142857  0.285714      4.000000
  0.428571  0.142857  0.285714      4.000000
 -0.428571  0.142857  0.285714      4.000000
 -0.285714  0.142857  0.285714      4.000000
 -0.142857  0.142857  0.285714      4.000000
  0.285714  0.285714  0.285714      2.000000
  0.428571  0.285714  0.285714      4.000000
 -0.428571  0.285714  0.285714      4.000000
[...]
  0.285714  0.285714  0.428571      2.000000
  0.428571  0.285714  0.428571      4.000000
 -0.428571  0.285714  0.428571      4.000000
 -0.285714  0.285714  0.428571      4.000000
 -0.142857  0.285714  0.428571      4.000000
  0.428571  0.428571  0.428571      2.000000
 -0.428571  0.428571  0.428571      4.000000
 -0.285714  0.428571  0.428571      4.000000
 -0.142857  0.428571  0.428571      4.000000
 -0.428571 -0.428571  0.428571      2.000000
 -0.285714 -0.428571  0.428571      4.000000
 -0.142857 -0.428571  0.428571      4.000000
 -0.285714 -0.285714  0.428571      2.000000
 -0.142857 -0.285714  0.428571      4.000000
 -0.142857 -0.142857  0.428571      2.000000

 Following cartesian coordinates:
[...]
  -0.28571429 -0.28571429  0.14285714       0.006
  -0.14285714 -0.28571429  0.14285714       0.012
  -0.14285714 -0.14285714  0.14285714       0.006
   0.00000000  0.00000000  0.28571429       0.006
   0.14285714 -0.00000000  0.28571429       0.012
   0.28571429 -0.00000000  0.28571429       0.012
   0.42857143 -0.00000000  0.28571429       0.012
  -0.42857143  0.00000000  0.28571429       0.012
  -0.28571429 -0.00000000  0.28571429       0.012
  -0.14285714 -0.00000000  0.28571429       0.012
   0.14285714  0.14285714  0.28571429       0.006
   0.28571429  0.14285714  0.28571429       0.012
   0.42857143  0.14285714  0.28571429       0.012
  -0.42857143  0.14285714  0.28571429       0.012
  -0.28571429  0.14285714  0.28571429       0.012
  -0.14285714  0.14285714  0.28571429       0.012
   0.28571429  0.28571429  0.28571429       0.006
   0.42857143  0.28571429  0.28571429       0.012
  -0.42857143  0.28571429  0.28571429       0.012
[...]
   0.28571429  0.28571429  0.42857143       0.006
   0.42857143  0.28571429  0.42857143       0.012
  -0.42857143  0.28571429  0.42857143       0.012
  -0.28571429  0.28571429  0.42857143       0.012
  -0.14285714  0.28571429  0.42857143       0.012
   0.42857143  0.42857143  0.42857143       0.006
  -0.42857143  0.42857143  0.42857143       0.012
  -0.28571429  0.42857143  0.42857143       0.012
  -0.14285714  0.42857143  0.42857143       0.012
  -0.42857143 -0.42857143  0.42857143       0.006
  -0.28571429 -0.42857143  0.42857143       0.012
  -0.14285714 -0.42857143  0.42857143       0.012
  -0.28571429 -0.28571429  0.42857143       0.006
  -0.14285714 -0.28571429  0.42857143       0.012
  -0.14285714 -0.14285714  0.42857143       0.006

 position of ions in fractional coordinates (direct lattice)
   0.25000000  0.75000000  0.50000000
   0.75000000  0.25000000  0.50000000
   0.37704000  0.87704000  0.25408000
   0.00000000  0.00000000  0.50000000
   0.62296000  0.12296000  0.74592000
   0.87704000  0.62296000  0.50000000
   0.00000000  0.50000000  0.00000000
   0.12296000  0.37704000  0.50000000
   0.50000000  0.50000000  0.50000000
   0.50000000  0.00000000  0.00000000
   0.25000000  0.25000000  0.00000000
   0.75000000  0.75000000  0.00000000

 position of ions in cartesian coordinates  (Angst):
  -0.18495234  4.10177248  0.30184883
   3.87160843  1.36725749  0.30184883
   0.28340045  4.79655805 -2.09166473
   0.00000000  0.00000000  3.31162500
   3.40325564  0.67247193  2.69536240
   3.79568303  3.40698692 -1.20303925
  -1.10661636  2.73451499 -1.50488808
  -0.10902694  2.06204306  1.80673692
   1.84332804  2.73451499  0.30184883
   2.94994441  0.00000000 -1.50488808
   0.92166402  1.36725749 -1.50488808
   2.76499207  4.10177248 -4.51466425

 k-point   1 :   0.0000 0.0000 0.0000  plane waves:    7189
 k-point   2 :   0.1429-0.0000 0.0000  plane waves:    7150
 k-point   3 :   0.2857-0.0000 0.0000  plane waves:    7125
 k-point   4 :   0.4286-0.0000 0.0000  plane waves:    7137
 k-point   5 :   0.1429 0.1429 0.0000  plane waves:    7124
 k-point   6 :   0.2857 0.1429 0.0000  plane waves:    7130
 k-point   7 :   0.4286 0.1429 0.0000  plane waves:    7135
 k-point   8 :  -0.4286 0.1429 0.0000  plane waves:    7123
 k-point   9 :  -0.2857 0.1429 0.0000  plane waves:    7133
 k-point  10 :  -0.1429 0.1429 0.0000  plane waves:    7143
 k-point  11 :   0.2857 0.2857 0.0000  plane waves:    7138
 k-point  12 :   0.4286 0.2857 0.0000  plane waves:    7134
 k-point  13 :  -0.4286 0.2857 0.0000  plane waves:    7133
 k-point  14 :  -0.2857 0.2857 0.0000  plane waves:    7132
 k-point  15 :   0.4286 0.4286 0.0000  plane waves:    7133
 k-point  16 :  -0.4286 0.4286 0.0000  plane waves:    7132
 k-point  17 :  -0.0000-0.0000 0.1429  plane waves:    7143
 k-point  18 :   0.1429-0.0000 0.1429  plane waves:    7133
 k-point  19 :   0.2857 0.0000 0.1429  plane waves:    7124
 k-point  20 :   0.4286-0.0000 0.1429  plane waves:    7133
 k-point  21 :  -0.4286-0.0000 0.1429  plane waves:    7130
 k-point  22 :  -0.2857-0.0000 0.1429  plane waves:    7124
 k-point  23 :  -0.1429-0.0000 0.1429  plane waves:    7150
 k-point  24 :   0.1429 0.1429 0.1429  plane waves:    7124
 k-point  25 :   0.2857 0.1429 0.1429  plane waves:    7143
 k-point  26 :   0.4286 0.1429 0.1429  plane waves:    7143
 k-point  27 :  -0.4286 0.1429 0.1429  plane waves:    7124
 k-point  28 :  -0.2857 0.1429 0.1429  plane waves:    7133
 k-point  29 :  -0.1429 0.1429 0.1429  plane waves:    7122
 k-point  30 :   0.2857 0.2857 0.1429  plane waves:    7156
 k-point  31 :   0.4286 0.2857 0.1429  plane waves:    7146
 k-point  32 :  -0.4286 0.2857 0.1429  plane waves:    7133
 k-point  33 :  -0.2857 0.2857 0.1429  plane waves:    7122
 k-point  34 :  -0.1429 0.2857 0.1429  plane waves:    7119
 k-point  35 :   0.4286 0.4286 0.1429  plane waves:    7133
 k-point  36 :  -0.4286 0.4286 0.1429  plane waves:    7137
 k-point  37 :  -0.2857 0.4286 0.1429  plane waves:    7132
 k-point  38 :  -0.1429 0.4286 0.1429  plane waves:    7138
 k-point  39 :  -0.4286-0.4286 0.1429  plane waves:    7138
 k-point  40 :  -0.2857-0.4286 0.1429  plane waves:    7128
 k-point  41 :  -0.1429-0.4286 0.1429  plane waves:    7145
 k-point  42 :  -0.2857-0.2857 0.1429  plane waves:    7122
 k-point  43 :  -0.1429-0.2857 0.1429  plane waves:    7122
 k-point  44 :  -0.1429-0.1429 0.1429  plane waves:    7126
 k-point  45 :   0.0000 0.0000 0.2857  plane waves:    7132
 k-point  46 :   0.1429-0.0000 0.2857  plane waves:    7133
 k-point  47 :   0.2857-0.0000 0.2857  plane waves:    7134
 k-point  48 :   0.4286-0.0000 0.2857  plane waves:    7138
 k-point  49 :  -0.4286 0.0000 0.2857  plane waves:    7130
 k-point  50 :  -0.2857-0.0000 0.2857  plane waves:    7125
 k-point  51 :  -0.1429-0.0000 0.2857  plane waves:    7133
 k-point  52 :   0.1429 0.1429 0.2857  plane waves:    7146
 k-point  53 :   0.2857 0.1429 0.2857  plane waves:    7156
 k-point  54 :   0.4286 0.1429 0.2857  plane waves:    7143
 k-point  55 :  -0.4286 0.1429 0.2857  plane waves:    7123
 k-point  56 :  -0.2857 0.1429 0.2857  plane waves:    7119
 k-point  57 :  -0.1429 0.1429 0.2857  plane waves:    7122
 k-point  58 :   0.2857 0.2857 0.2857  plane waves:    7156
 k-point  59 :   0.4286 0.2857 0.2857  plane waves:    7134
 k-point  60 :  -0.4286 0.2857 0.2857  plane waves:    7132
[...]
 k-point  86 :   0.2857 0.2857 0.4286  plane waves:    7138
 k-point  87 :   0.4286 0.2857 0.4286  plane waves:    7128
 k-point  88 :  -0.4286 0.2857 0.4286  plane waves:    7133
 k-point  89 :  -0.2857 0.2857 0.4286  plane waves:    7134
 k-point  90 :  -0.1429 0.2857 0.4286  plane waves:    7138
 k-point  91 :   0.4286 0.4286 0.4286  plane waves:    7134
 k-point  92 :  -0.4286 0.4286 0.4286  plane waves:    7128
 k-point  93 :  -0.2857 0.4286 0.4286  plane waves:    7134
 k-point  94 :  -0.1429 0.4286 0.4286  plane waves:    7128
 k-point  95 :  -0.4286-0.4286 0.4286  plane waves:    7126
 k-point  96 :  -0.2857-0.4286 0.4286  plane waves:    7139
 k-point  97 :  -0.1429-0.4286 0.4286  plane waves:    7145
 k-point  98 :  -0.2857-0.2857 0.4286  plane waves:    7122
 k-point  99 :  -0.1429-0.2857 0.4286  plane waves:    7130
 k-point 100 :  -0.1429-0.1429 0.4286  plane waves:    7124

 maximum and minimum number of plane-waves per node :      3616     3520

 maximum number of plane-waves:      7189
 maximum index in each direction:
   IXMAX=   13   IYMAX=   13   IZMAX=   13
   IXMIN=  -13   IYMIN=  -13   IZMIN=  -13

 parallel 3D FFT for wavefunctions:
    minimum data exchange during FFTs selected (reduces bandwidth)
 parallel 3D FFT for charge:
    minimum data exchange during FFTs selected (reduces bandwidth)

 Broyden mixing: mesh for mixing (old mesh)
   NGX = 27   NGY = 27   NGZ = 27
  (NGX  =108   NGY  =108   NGZ  =108)
  gives a total of  19683 points

 initial charge density was supplied:
 charge density of overlapping atoms calculated
 number of electron     126.0000000 magnetization
 keeping initial charge density in first step

 Maximum index for augmentation-charges        21053 (set IRDMAX)

 First call to EWALD:  gamma=   0.296
 Maximum number of real-space cells 3x 3x 3
 Maximum number of reciprocal cells 3x 3x 3

--------------------------------------- Iteration      1(   1)  ---------------------------------------

 eigenvalue-minimisations  : 16428
 total energy-change (2. order) : 0.1404549E+04  (-0.8613390E+04)
 number of electron     126.0000000 magnetization
 augmentation part      126.0000000 magnetization

 Free energy of the ion-electron system (eV)
  alpha Z        PSCENC =       657.83407630
  Ewald energy   TEWEN  =    -11316.36515296
  -Hartree energ DENC   =     -3722.39098642
  -exchange      EXHF   =         0.00000000
  -V(xc)+E(xc)   XCENC  =       612.16655898
  PAW double counting   =     12139.29562609   -12091.82663909
  entropy T*S    EENTRO =        -0.00088880
  eigenvalues    EBANDS =      -120.89642079
  atomic energy  EATOM  =     15246.73248675
  free energy    TOTEN  =      1404.54866005 eV

  energy without entropy =     1404.54954885  energy(sigma->0) =     1404.54910445

[...]

 eigenvalue-minimisations  : 17256
 total energy-change (2. order) :-0.1621936E+04  (-0.1583958E+04)
 number of electron     126.0000000 magnetization
 augmentation part      126.0000000 magnetization

[...]

 eigenvalue-minimisations  :     0
 total energy-change (2. order) :-0.8860297E-08  (-0.1599784E-08)
 number of electron     126.0000001 magnetization
 augmentation part       19.1803650 magnetization

[...]

--------------------------------------- Iteration      1(  41)  ---------------------------------------

 eigenvalue-minimisations  :     0
 total energy-change (2. order) : 0.3456080E-10  (-0.3305985E-09)
 number of electron     126.0000001 magnetization
 augmentation part       19.1803645 magnetization

 Free energy of the ion-electron system (eV)
  alpha Z        PSCENC =       657.83407630
  Ewald energy   TEWEN  =    -11316.36515296
  -Hartree energ DENC   =     -3561.49044803
  -exchange      EXHF   =         0.00000000
  -V(xc)+E(xc)   XCENC  =       622.85278005
  PAW double counting   =     14345.70062910   -14320.99502036
  entropy T*S    EENTRO =        -0.00269021
  eigenvalues    EBANDS =     -1906.12373155
  atomic energy  EATOM  =     15246.73248675
  free energy    TOTEN  =      -231.85707092 eV

  energy without entropy =     -231.85438071  energy(sigma->0) =     -231.85572581

  average scaling for gradient   0.8355

 average (electrostatic) potential at core
  the test charge radii are     0.7672  1.0818  0.9892
  (the norm of the test charge is              1.0000)
       1 -25.7168       2 -25.7168       3 -78.5546       4 -78.4782       5 -78.5546
       6 -78.5545       7 -78.4781       8 -78.5545       9 -78.4782      10 -78.4783
      11 -84.1968      12 -84.1968

 E-fermi :   8.4357     XC(G=0): -12.3146     alpha+bet :-14.9792

 Fermi energy:         8.4357444141

 k-point     1 :       0.0000    0.0000    0.0000
  band No.  band energies     occupation
      1     -54.7619      2.00000
      2     -54.7493      2.00000
      3     -54.5147      2.00000
      4     -54.5147      2.00000
      5     -54.4627      2.00000
      6     -54.4627      2.00000
      7     -54.4504      2.00000
      8     -54.4467      2.00000
      9     -28.7609      2.00000
     10     -28.7354      2.00000
     11     -28.6078      2.00000
     12     -28.5928      2.00000
     13     -28.1968      2.00000
     14     -28.1968      2.00000
     15     -28.1126      2.00000
     16     -28.1126      2.00000
     17     -28.0866      2.00000
     18     -27.9491      2.00000
     19     -27.9426      2.00000
     20     -27.9406      2.00000
     21     -27.9406      2.00000
     22     -27.9337      2.00000
     23     -27.9156      2.00000
     24     -27.8917      2.00000
     25     -27.8917      2.00000
     26     -27.8877      2.00000
     27     -27.8877      2.00000
     28     -27.8507      2.00000
     29     -27.2077      2.00000
     30     -27.1894      2.00000
     31     -26.9878      2.00000
     32     -26.9878      2.00000
     33      -1.7814      2.00000
     34       0.0236      2.00000
     35       0.9571      2.00000
     36       1.1333      2.00000
     37       2.7874      2.00000
     38       2.7874      2.00000
     39       3.2724      2.00000
     40       3.9424      2.00000
     41       4.4904      2.00000
     42       4.8678      2.00000
     43       4.9363      2.00000
     44       4.9364      2.00000
     45       5.1465      2.00000
     46       5.3032      2.00000
     47       5.3033      2.00000
     48       5.5637      2.00000
     49       5.9151      2.00000
     50       5.9151      2.00000
     51       5.9876      2.00000
     52       5.9877      2.00000
     53       6.0626      2.00000
     54       6.0626      2.00000
     55       6.3890      2.00000
     56       6.9147      2.00000
     57       7.2727      2.00000
     58       7.4569      2.00000
     59       7.6369      2.00000
     60       7.6385      2.00000
[...]
     64       8.4528      0.22752
     65       8.4529      0.22607
     66       8.5388      0.00000
     67       8.5982      0.00000
     68       9.1461      0.00000
     69       9.1461      0.00000
     70       9.3167      0.00000
     71       9.8542      0.00000
     72       9.9633      0.00000
     73       9.9633      0.00000
     74      10.1553      0.00000
     75      10.1553      0.00000
     76      10.6587      0.00000
     77      10.7649      0.00000
     78      11.4029      0.00000

[...]

 k-point   100 :      -0.1429   -0.1429    0.4286
  band No.  band energies     occupation
      1     -54.7464      2.00000
      2     -54.7252      2.00000
      3     -54.5788      2.00000
      4     -54.5495      2.00000
      5     -54.4923      2.00000
      6     -54.4587      2.00000
      7     -54.4274      2.00000
      8     -54.3846      2.00000
      9     -28.7592      2.00000
     10     -28.7518      2.00000
     11     -28.6217      2.00000
     12     -28.5322      2.00000
     13     -28.3051      2.00000
     14     -28.2300      2.00000
     15     -28.1729      2.00000
     16     -28.1652      2.00000
     17     -28.0787      2.00000
     18     -28.0307      2.00000
     19     -27.9699      2.00000
     20     -27.9583      2.00000
     21     -27.9170      2.00000
     22     -27.9055      2.00000
     23     -27.8990      2.00000
     24     -27.8883      2.00000
     25     -27.8775      2.00000
     26     -27.8592      2.00000
     27     -27.6785      2.00000
     28     -27.6526      2.00000
     29     -27.2629      2.00000
     30     -27.2407      2.00000
     31     -27.0542      2.00000
     32     -26.9990      2.00000
     33      -1.1217      2.00000
     34       0.1069      2.00000
     35       0.2090      2.00000
     36       0.4920      2.00000
     37       3.4674      2.00000
     38       3.6813      2.00000
     39       3.8066      2.00000
     40       4.1498      2.00000
     41       4.2293      2.00000
     42       4.2351      2.00000
     43       4.8676      2.00000
     44       4.9170      2.00000
     45       4.9981      2.00000
     46       5.1656      2.00000
     47       5.2034      2.00000
     48       5.2332      2.00000
     49       5.3797      2.00000
     50       5.5609      2.00000
     51       5.7926      2.00000
     52       6.0331      2.00000
     53       6.0557      2.00000
     54       6.1247      2.00000
     55       6.3445      2.00000
     56       6.4828      2.00000
     57       6.8770      2.00000
     58       7.0636      2.00000
     59       7.1438      2.00000
     60       7.3742      2.00000
[...]
     64       8.4479      0.39149
     65       8.8779      0.00000
     66       9.0323      0.00000
     67       9.1888      0.00000
     68       9.4057      0.00000
     69       9.4732      0.00000
     70       9.4994      0.00000
     71       9.7879      0.00000
     72       9.9866      0.00000
     73      10.1275      0.00000
     74      10.3163      0.00000
     75      10.4098      0.00000
     76      10.6838      0.00000
     77      10.9383      0.00000
     78      11.2715      0.00000

 soft charge-density along one line, spin component           1
         0         1         2         3         4         5         6         7         8         9
 total charge-density along one line

------------------------ aborting loop because EDIFF is reached ----------------------------------------

  FREE ENERGIE OF THE ION-ELECTRON SYSTEM (eV)
  free  energy   TOTEN  =      -231.85707092 eV

  energy  without entropy=     -231.85438071  energy(sigma->0) =     -231.85572581

 writing wavefunctions