 vasp.6.2.0 18Jan21 (build Jan 05 2022 15:41:44) complex

 executed on             LinuxIFC date 2025.05.07  20:22:25

 INCAR:
   SYSTEM = routine with relax: pwdword
   ICHARG = 2
   NPAR = 6
   KPAR = 2
   NCORE = 2
   ADDGRID = T
   PREC = Acc
   ENCUT = 600
   METAGGA = R2SCAN
   LASPH = .TRUE.
   LMIXTAU = .FALSE.
   ALGO = A
   EDIFF = 1E-9
   NELM = 100
   NELMIN = 6
   IALGO = 38
   LREAL = F
   NSW = 0
   ISIF = -1
   ISMEAR = 0
   SIGMA = 0.02

 POTCAR:    PAW_PBE B 06Sep2000
 POTCAR:    PAW_PBE Mo_sv 02Feb2006
 POTCAR:    PAW_PBE Si 05Jan2001
|           W    W    AA    RRRRR   N    N  II  N    N   GGGG   !!!           |
|           W    W   A  A   R    R  NN   N  II  NN   N  G    G  !!!           |
|           W    W  A    A  R    R  N N  N  II  N N  N  G       !!!           |
|           W WW W  AAAAAA  RRRRR   N  N N  II  N  N N  G  GGG   !            |
|           WW  WW  A    A  R   R   N   NN  II  N   NN  G    G                |
|           W    W  A    A  R    R  N    N  II  N    N   GGGG   !!!           |
|     For optimal performance we recommend to set                             |
|       NCORE = 2 up to number-of-cores-per-socket                            |
|     This setting can greatly improve the performance of VASP for DFT.       |
|     The default, NCORE=1 might be grossly inefficient on modern             |
|     multi-core architectures or massively parallel machines. Do your        |
|     Unfortunately you need to use the default for GW and RPA                |
|     calculations (for HF NCORE is supported but not extensively tested      |
|     yet).                                                                   |

 POTCAR:    PAW_PBE B 06Sep2000
   VRHFIN =B: s2p1

   TITEL  = PAW_PBE B 06Sep2000
   POMASS =   10.811; ZVAL   =    3.000    mass and valenz
   ENMAX  =  318.614; ENMIN  =  238.960 eV

 POTCAR:    PAW_PBE Mo_sv 02Feb2006
   VRHFIN =Mo: 4p5s4d

   TITEL  = PAW_PBE Mo_sv 02Feb2006
   POMASS =   95.940; ZVAL   =   14.000    mass and valenz
   ENMAX  =  242.676; ENMIN  =  182.007 eV

 POTCAR:    PAW_PBE Si 05Jan2001
   VRHFIN =Si: s2p2

   TITEL  = PAW_PBE Si 05Jan2001
   POMASS =   28.085; ZVAL   =    4.000    mass and valenz
   ENMAX  =  245.345; ENMIN  =  184.009 eV

  PAW_PBE B 06Sep2000                   :
  PAW_PBE Mo_sv 02Feb2006               :
  PAW_PBE Si 05Jan2001                  :

 POSCAR: EA217
  positions in direct lattice

 METAGGA = R2SCA    LMAXTAU =  6    LMIXTAU =  F

 ion  position               nearest neighbor table
   1  0.245  0.745  0.990-   5 2.19   8 2.27  10 2.28  12 2.28
   2  0.755  0.255  0.010-   5 2.19   8 2.27  10 2.28  12 2.28
   3  0.745  0.755  0.500-   8 2.19   5 2.27   9 2.28  11 2.28
   4  0.255  0.245  0.500-   8 2.19   5 2.27   9 2.28  11 2.28
   5  0.000  0.500  0.500-   1 2.19   2 2.19   3 2.27   4 2.27  12 3.19  12 3.19  10 3.19  10 3.19
                            11 3.19   9 3.19  11 3.19   9 3.19
   6  0.250  0.250  0.000-  11 2.23   9 2.23  12 2.23  10 2.23
   7  0.750  0.750  0.000-   9 2.23  11 2.23  12 2.23  10 2.23
   8  0.500  0.000  0.500-   3 2.19   4 2.19   2 2.27   1 2.27  10 3.19  10 3.19  12 3.19  12 3.19
                             9 3.19  11 3.19   9 3.19  11 3.19
   9  0.000  0.000  0.500-   6 2.23   7 2.23   3 2.28   4 2.28   8 3.19   5 3.19   5 3.19   8 3.19

  10  0.000  0.500  0.000-   6 2.23   7 2.23   1 2.28   2 2.28   8 3.19   8 3.19   5 3.19   5 3.19

[...]

  12  0.500  0.000  0.000-   6 2.23   7 2.23   1 2.28   2 2.28   5 3.19   5 3.19   8 3.19   8 3.19

  Warning from LATTYP: Got some problem with cell dimensions!
  Tried to take original basis but could not verify dimensions!
  LATTYP: Found a base centered monoclinic cell.
 ALAT       =     8.9174995302
 B/A-ratio  =     1.0000155718
 C/A-ratio  =     0.7150382097
 COS(beta)  =    -0.6992524417

  Lattice vectors:

 A1 = (   1.7737053758,  -5.1859958607,  -3.1178412822)
 A2 = (  -5.4809291025,   0.0000000000,  -3.1178412822)
 A3 = (   3.7072237267,   5.1859958607,  -0.1407674355)

Analysis of symmetry for initial positions (statically):
 Subroutine PRICEL returns:
 Original cell was already a primitive cell.

 Routine SETGRP: Setting up the symmetry group for a
 base centered monoclinic supercell.

 Subroutine GETGRP returns: Found  4 space group operations
 (whereof  2 operations were pure point group operations)
 out of a pool of  4 trial point group operations.

The static configuration has the point symmetry S_2 .
 The point group associated with its full space group is C_2h.

Analysis of symmetry for dynamics (positions and initial velocities):
 Subroutine PRICEL returns:
 Original cell was already a primitive cell.

 Routine SETGRP: Setting up the symmetry group for a
 base centered monoclinic supercell.

 Subroutine GETGRP returns: Found  4 space group operations
 (whereof  2 operations were pure point group operations)
 out of a pool of  4 trial point group operations.

The dynamic configuration has the point symmetry S_2 .
 The point group associated with its full space group is C_2h.

 Subroutine INISYM returns: Found  4 space group operations
 (whereof  2 operations are pure point group operations),
 and found     1 'primitive' translations

                                     Primitive cell

  volume of cell :     181.2447

  direct lattice vectors                    reciprocal lattice vectors
     5.480929103  0.000000000 -3.258608718     0.182450818  0.062401515  0.000000000
    -1.773705376  5.185995861 -3.258608718     0.000000000  0.192826995  0.000000000
     0.000000000  0.000000000  6.376450000     0.093239315  0.130431486  0.156827075

  length of vectors
     6.376450000  6.376450000  6.376450000     0.192826995  0.192826995  0.224278117

  position of ions in fractional coordinates (direct lattice)
     0.245180000  0.745180000  0.990370000
     0.754820000  0.254820000  0.009630000
     0.745180000  0.754820000  0.500000000
     0.254820000  0.245180000  0.500000000
     1.000000000  0.500000000  0.500000000
     0.250000000  0.250000000  1.000000000
     0.750000000  0.750000000  1.000000000
     0.500000000  0.000000000  0.500000000
     0.000000000  0.000000000  0.500000000
     1.000000000  0.500000000  1.000000000
     0.500000000  0.500000000  0.500000000
     0.500000000  0.000000000  1.000000000

  ion indices of the primitive-cell ions
   primitive index   ion index
                 1           1
                 2           2
                 3           3
                 4           4
                 5           5
                 6           6
                 7           7
                 8           8
                 9           9
                10          10
                11          11
                12          12

 KPOINTS: EA

Automatic generation of k-mesh.
 Grid dimensions read from file:
 generate k-points for:    7    7    8

 Generating k-lattice:

  Cartesian coordinates                     Fractional coordinates (reciprocal lattice)
     0.026064403  0.008914502  0.000000000     0.142857143 -0.000000000  0.000000000
     0.000000000  0.027546714  0.000000000     0.000000000  0.142857143  0.000000000
     0.011654914  0.016303936  0.019603384    -0.000000000 -0.000000000  0.125000000

  Length of vectors
     0.027546714  0.027546714  0.028034765

  Shift w.r.t. Gamma in fractional coordinates (k-lattice)
     0.000000000  0.000000000  0.000000000

 Subroutine IBZKPT returns following result:

 Found    116 irreducible k-points:

 Following reciprocal coordinates:
            Coordinates               Weight
  0.000000  0.000000  0.000000      1.000000
  0.142857  0.000000  0.000000      4.000000
  0.285714  0.000000  0.000000      4.000000
  0.428571  0.000000  0.000000      4.000000
  0.142857  0.142857  0.000000      2.000000
  0.285714  0.142857  0.000000      4.000000
  0.428571  0.142857  0.000000      4.000000
 -0.428571  0.142857  0.000000      4.000000
 -0.285714  0.142857  0.000000      4.000000
 -0.142857  0.142857  0.000000      2.000000
  0.285714  0.285714  0.000000      2.000000
  0.428571  0.285714  0.000000      4.000000
 -0.428571  0.285714  0.000000      4.000000
 -0.285714  0.285714  0.000000      2.000000
  0.428571  0.428571  0.000000      2.000000
 -0.428571  0.428571  0.000000      2.000000
  0.000000  0.000000  0.125000      2.000000
  0.142857  0.000000  0.125000      4.000000
  0.285714  0.000000  0.125000      4.000000
  0.428571  0.000000  0.125000      4.000000
 -0.428571 -0.000000  0.125000      4.000000
 -0.285714  0.000000  0.125000      4.000000
 -0.142857  0.000000  0.125000      4.000000
  0.142857  0.142857  0.125000      2.000000
  0.285714  0.142857  0.125000      4.000000
  0.428571  0.142857  0.125000      4.000000
 -0.428571  0.142857  0.125000      4.000000
 -0.285714  0.142857  0.125000      4.000000
 -0.142857  0.142857  0.125000      4.000000
  0.285714  0.285714  0.125000      2.000000
  0.428571  0.285714  0.125000      4.000000
 -0.428571  0.285714  0.125000      4.000000
 -0.285714  0.285714  0.125000      4.000000
 -0.142857  0.285714  0.125000      4.000000
  0.428571  0.428571  0.125000      2.000000
 -0.428571  0.428571  0.125000      4.000000
 -0.285714  0.428571  0.125000      4.000000
 -0.142857  0.428571  0.125000      4.000000
 -0.428571 -0.428571  0.125000      2.000000
 -0.285714 -0.428571  0.125000      4.000000
 -0.142857 -0.428571  0.125000      4.000000
 -0.285714 -0.285714  0.125000      2.000000
 -0.142857 -0.285714  0.125000      4.000000
 -0.142857 -0.142857  0.125000      2.000000
  0.000000  0.000000  0.250000      2.000000
  0.142857  0.000000  0.250000      4.000000
  0.285714  0.000000  0.250000      4.000000
  0.428571  0.000000  0.250000      4.000000
 -0.428571 -0.000000  0.250000      4.000000
 -0.285714  0.000000  0.250000      4.000000
 -0.142857  0.000000  0.250000      4.000000
  0.142857  0.142857  0.250000      2.000000
  0.285714  0.142857  0.250000      4.000000
  0.428571  0.142857  0.250000      4.000000
 -0.428571  0.142857  0.250000      4.000000
 -0.285714  0.142857  0.250000      4.000000
 -0.142857  0.142857  0.250000      4.000000
  0.285714  0.285714  0.250000      2.000000
  0.428571  0.285714  0.250000      4.000000
 -0.428571  0.285714  0.250000      4.000000
[...]
  0.142857  0.000000  0.500000      4.000000
  0.285714  0.000000  0.500000      4.000000
  0.428571  0.000000  0.500000      4.000000
  0.142857  0.142857  0.500000      2.000000
  0.285714  0.142857  0.500000      4.000000
  0.428571  0.142857  0.500000      4.000000
 -0.428571  0.142857  0.500000      4.000000
 -0.285714  0.142857  0.500000      4.000000
 -0.142857  0.142857  0.500000      2.000000
  0.285714  0.285714  0.500000      2.000000
  0.428571  0.285714  0.500000      4.000000
 -0.428571  0.285714  0.500000      4.000000
 -0.285714  0.285714  0.500000      2.000000
  0.428571  0.428571  0.500000      2.000000
 -0.428571  0.428571  0.500000      2.000000

 Following cartesian coordinates:
            Coordinates               Weight
  0.000000  0.000000  0.000000      1.000000
  0.026064  0.008915  0.000000      4.000000
  0.052129  0.017829  0.000000      4.000000
[...]
  -0.42857143 -0.00000000  0.12500000       0.010
  -0.28571429  0.00000000  0.12500000       0.010
  -0.14285714  0.00000000  0.12500000       0.010
   0.14285714  0.14285714  0.12500000       0.005
   0.28571429  0.14285714  0.12500000       0.010
   0.42857143  0.14285714  0.12500000       0.010
  -0.42857143  0.14285714  0.12500000       0.010
  -0.28571429  0.14285714  0.12500000       0.010
  -0.14285714  0.14285714  0.12500000       0.010
   0.28571429  0.28571429  0.12500000       0.005
   0.42857143  0.28571429  0.12500000       0.010
  -0.42857143  0.28571429  0.12500000       0.010
  -0.28571429  0.28571429  0.12500000       0.010
  -0.14285714  0.28571429  0.12500000       0.010
   0.42857143  0.42857143  0.12500000       0.005
  -0.42857143  0.42857143  0.12500000       0.010
  -0.28571429  0.42857143  0.12500000       0.010
  -0.14285714  0.42857143  0.12500000       0.010
  -0.42857143 -0.42857143  0.12500000       0.005
  -0.28571429 -0.42857143  0.12500000       0.010
  -0.14285714 -0.42857143  0.12500000       0.010
  -0.28571429 -0.28571429  0.12500000       0.005
  -0.14285714 -0.28571429  0.12500000       0.010
  -0.14285714 -0.14285714  0.12500000       0.005
   0.00000000  0.00000000  0.25000000       0.005
   0.14285714  0.00000000  0.25000000       0.010
   0.28571429  0.00000000  0.25000000       0.010
   0.42857143  0.00000000  0.25000000       0.010
  -0.42857143 -0.00000000  0.25000000       0.010
  -0.28571429  0.00000000  0.25000000       0.010
  -0.14285714  0.00000000  0.25000000       0.010
   0.14285714  0.14285714  0.25000000       0.005
   0.28571429  0.14285714  0.25000000       0.010
   0.42857143  0.14285714  0.25000000       0.010
  -0.42857143  0.14285714  0.25000000       0.010
  -0.28571429  0.14285714  0.25000000       0.010
  -0.14285714  0.14285714  0.25000000       0.010
   0.28571429  0.28571429  0.25000000       0.005
   0.42857143  0.28571429  0.25000000       0.010
  -0.42857143  0.28571429  0.25000000       0.010
[...]
   0.14285714  0.00000000  0.50000000       0.010
   0.28571429  0.00000000  0.50000000       0.010
   0.42857143  0.00000000  0.50000000       0.010
   0.14285714  0.14285714  0.50000000       0.005
   0.28571429  0.14285714  0.50000000       0.010
   0.42857143  0.14285714  0.50000000       0.010
  -0.42857143  0.14285714  0.50000000       0.010
  -0.28571429  0.14285714  0.50000000       0.010
  -0.14285714  0.14285714  0.50000000       0.005
   0.28571429  0.28571429  0.50000000       0.005
   0.42857143  0.28571429  0.50000000       0.010
  -0.42857143  0.28571429  0.50000000       0.010
  -0.28571429  0.28571429  0.50000000       0.005
   0.42857143  0.42857143  0.50000000       0.005
  -0.42857143  0.42857143  0.50000000       0.005

 position of ions in fractional coordinates (direct lattice)
   0.24518000  0.74518000  0.99037000
   0.75482000  0.25482000  0.00963000
   0.74518000  0.75482000  0.50000000
   0.25482000  0.24518000  0.50000000
   0.00000000  0.50000000  0.50000000
   0.25000000  0.25000000  0.00000000
   0.75000000  0.75000000  0.00000000
   0.50000000  0.00000000  0.50000000
   0.00000000  0.00000000  0.50000000
   0.00000000  0.50000000  0.00000000
   0.50000000  0.50000000  0.50000000
   0.50000000  0.00000000  0.00000000

 position of ions in cartesian coordinates  (Angst):
   0.02208443  3.86450040  3.08784906
   3.68513930  1.32149547 -3.22861649
   2.74545046  3.91449340 -1.69968808
   0.96177327  1.27150247  1.55892064
  -0.88685269  2.59299793  1.55892064
   0.92680593  1.29649897 -1.62930436
   2.78041780  3.88949690 -4.88791308
   2.74046455  0.00000000  1.55892064
   0.00000000  0.00000000  3.18822500
  -0.88685269  2.59299793 -1.62930436
   1.85361186  2.59299793 -0.07038372
   2.74046455  0.00000000 -1.62930436

 k-point   1 :   0.0000 0.0000 0.0000  plane waves:    6035
 k-point   2 :   0.1429 0.0000 0.0000  plane waves:    6049
 k-point   3 :   0.2857 0.0000 0.0000  plane waves:    6054
 k-point   4 :   0.4286 0.0000 0.0000  plane waves:    6064
 k-point   5 :   0.1429 0.1429 0.0000  plane waves:    6035
 k-point   6 :   0.2857 0.1429 0.0000  plane waves:    6060
 k-point   7 :   0.4286 0.1429 0.0000  plane waves:    6045
 k-point   8 :  -0.4286 0.1429 0.0000  plane waves:    6051
 k-point   9 :  -0.2857 0.1429 0.0000  plane waves:    6057
 k-point  10 :  -0.1429 0.1429 0.0000  plane waves:    6050
 k-point  11 :   0.2857 0.2857 0.0000  plane waves:    6038
 k-point  12 :   0.4286 0.2857 0.0000  plane waves:    6039
 k-point  13 :  -0.4286 0.2857 0.0000  plane waves:    6053
 k-point  14 :  -0.2857 0.2857 0.0000  plane waves:    6056
 k-point  15 :   0.4286 0.4286 0.0000  plane waves:    6033
 k-point  16 :  -0.4286 0.4286 0.0000  plane waves:    6038
 k-point  17 :   0.0000 0.0000 0.1250  plane waves:    6054
 k-point  18 :   0.1429 0.0000 0.1250  plane waves:    6051
 k-point  19 :   0.2857 0.0000 0.1250  plane waves:    6056
 k-point  20 :   0.4286 0.0000 0.1250  plane waves:    6053
 k-point  21 :  -0.4286-0.0000 0.1250  plane waves:    6059
 k-point  22 :  -0.2857 0.0000 0.1250  plane waves:    6044
 k-point  23 :  -0.1429 0.0000 0.1250  plane waves:    6044
 k-point  24 :   0.1429 0.1429 0.1250  plane waves:    6053
 k-point  25 :   0.2857 0.1429 0.1250  plane waves:    6030
 k-point  26 :   0.4286 0.1429 0.1250  plane waves:    6031
 k-point  27 :  -0.4286 0.1429 0.1250  plane waves:    6053
 k-point  28 :  -0.2857 0.1429 0.1250  plane waves:    6053
 k-point  29 :  -0.1429 0.1429 0.1250  plane waves:    6058
 k-point  30 :   0.2857 0.2857 0.1250  plane waves:    6035
 k-point  31 :   0.4286 0.2857 0.1250  plane waves:    6038
 k-point  32 :  -0.4286 0.2857 0.1250  plane waves:    6052
 k-point  33 :  -0.2857 0.2857 0.1250  plane waves:    6032
 k-point  34 :  -0.1429 0.2857 0.1250  plane waves:    6045
 k-point  35 :   0.4286 0.4286 0.1250  plane waves:    6033
 k-point  36 :  -0.4286 0.4286 0.1250  plane waves:    6056
 k-point  37 :  -0.2857 0.4286 0.1250  plane waves:    6046
 k-point  38 :  -0.1429 0.4286 0.1250  plane waves:    6045
 k-point  39 :  -0.4286-0.4286 0.1250  plane waves:    6036
 k-point  40 :  -0.2857-0.4286 0.1250  plane waves:    6051
 k-point  41 :  -0.1429-0.4286 0.1250  plane waves:    6058
 k-point  42 :  -0.2857-0.2857 0.1250  plane waves:    6060
 k-point  43 :  -0.1429-0.2857 0.1250  plane waves:    6052
 k-point  44 :  -0.1429-0.1429 0.1250  plane waves:    6065
 k-point  45 :   0.0000 0.0000 0.2500  plane waves:    6066
 k-point  46 :   0.1429 0.0000 0.2500  plane waves:    6049
 k-point  47 :   0.2857 0.0000 0.2500  plane waves:    6044
 k-point  48 :   0.4286 0.0000 0.2500  plane waves:    6039
 k-point  49 :  -0.4286-0.0000 0.2500  plane waves:    6051
 k-point  50 :  -0.2857 0.0000 0.2500  plane waves:    6048
 k-point  51 :  -0.1429 0.0000 0.2500  plane waves:    6048
 k-point  52 :   0.1429 0.1429 0.2500  plane waves:    6037
 k-point  53 :   0.2857 0.1429 0.2500  plane waves:    6041
 k-point  54 :   0.4286 0.1429 0.2500  plane waves:    6035
 k-point  55 :  -0.4286 0.1429 0.2500  plane waves:    6057
 k-point  56 :  -0.2857 0.1429 0.2500  plane waves:    6052
 k-point  57 :  -0.1429 0.1429 0.2500  plane waves:    6039
 k-point  58 :   0.2857 0.2857 0.2500  plane waves:    6037
 k-point  59 :   0.4286 0.2857 0.2500  plane waves:    6034
 k-point  60 :  -0.4286 0.2857 0.2500  plane waves:    6045
[...]
 k-point 102 :   0.1429 0.0000 0.5000  plane waves:    6041
 k-point 103 :   0.2857 0.0000 0.5000  plane waves:    6044
 k-point 104 :   0.4286 0.0000 0.5000  plane waves:    6062
 k-point 105 :   0.1429 0.1429 0.5000  plane waves:    6048
 k-point 106 :   0.2857 0.1429 0.5000  plane waves:    6042
 k-point 107 :   0.4286 0.1429 0.5000  plane waves:    6058
 k-point 108 :  -0.4286 0.1429 0.5000  plane waves:    6044
 k-point 109 :  -0.2857 0.1429 0.5000  plane waves:    6050
 k-point 110 :  -0.1429 0.1429 0.5000  plane waves:    6034
 k-point 111 :   0.2857 0.2857 0.5000  plane waves:    6055
 k-point 112 :   0.4286 0.2857 0.5000  plane waves:    6050
 k-point 113 :  -0.4286 0.2857 0.5000  plane waves:    6056
 k-point 114 :  -0.2857 0.2857 0.5000  plane waves:    6048
 k-point 115 :   0.4286 0.4286 0.5000  plane waves:    6071
 k-point 116 :  -0.4286 0.4286 0.5000  plane waves:    6062

 maximum and minimum number of plane-waves per node :      3051     3004

 maximum number of plane-waves:      6074
 maximum index in each direction:
   IXMAX=   13   IYMAX=   13   IZMAX=   12
   IXMIN=  -13   IYMIN=  -13   IZMIN=  -13

 parallel 3D FFT for wavefunctions:
    minimum data exchange during FFTs selected (reduces bandwidth)
 parallel 3D FFT for charge:
    minimum data exchange during FFTs selected (reduces bandwidth)

 Broyden mixing: mesh for mixing (old mesh)
   NGX = 25   NGY = 25   NGZ = 25
  (NGX  =108   NGY  =108   NGZ  =108)
  gives a total of  15625 points

 initial charge density was supplied:
 charge density of overlapping atoms calculated
 number of electron      84.0000000 magnetization
 keeping initial charge density in first step

 Maximum index for augmentation-charges        24644 (set IRDMAX)

 First call to EWALD:  gamma=   0.313
 Maximum number of real-space cells 3x 3x 3
 Maximum number of reciprocal cells 3x 3x 3

--------------------------------------- Iteration      1(   1)  ---------------------------------------

 eigenvalue-minimisations  : 13800
 total energy-change (2. order) : 0.6613696E+03  (-0.5385807E+04)
 number of electron      84.0000000 magnetization
 augmentation part       84.0000000 magnetization

 Free energy of the ion-electron system (eV)
  alpha Z        PSCENC =       302.14135920
  Ewald energy   TEWEN  =     -6099.74057974
  -Hartree energ DENC   =     -2004.63527732
  -exchange      EXHF   =         0.00000000
  -V(xc)+E(xc)   XCENC  =       317.54209279
  PAW double counting   =      6444.67582193    -6389.50304870
  entropy T*S    EENTRO =        -0.00058348
  eigenvalues    EBANDS =       -55.18492413
  atomic energy  EATOM  =      8146.07472429
  free energy    TOTEN  =       661.36958483 eV

  energy without entropy =      661.37016831  energy(sigma->0) =      661.36987657

[...]

 eigenvalue-minimisations  : 14514
 total energy-change (2. order) :-0.8093493E+03  (-0.7917415E+03)
 number of electron      84.0000000 magnetization
 augmentation part       84.0000000 magnetization

[...]

 eigenvalue-minimisations  :     0
 total energy-change (2. order) :-0.1482840E-07  ( 0.1333944E-06)
 number of electron      84.0000001 magnetization
 augmentation part        8.8113247 magnetization

[...]

 eigenvalue-minimisations  :     0
 total energy-change (2. order) : 0.7003109E-09  ( 0.7570287E-07)
 number of electron      84.0000001 magnetization
 augmentation part        8.8113255 magnetization

[...]

 eigenvalue-minimisations  :     0
 total energy-change (2. order) : 0.1158696E-08  (-0.1129608E-09)
 number of electron      84.0000001 magnetization
 augmentation part        8.8113267 magnetization

[...]

--------------------------------------- Iteration      1(  44)  ---------------------------------------

 eigenvalue-minimisations  :     0
 total energy-change (2. order) :-0.2000888E-10  (-0.7824590E-10)
 number of electron      84.0000001 magnetization
 augmentation part        8.8113259 magnetization

 Free energy of the ion-electron system (eV)
  alpha Z        PSCENC =       302.14135920
  Ewald energy   TEWEN  =     -6099.74057974
  -Hartree energ DENC   =     -1935.70356578
  -exchange      EXHF   =         0.00000000
  -V(xc)+E(xc)   XCENC  =       326.17250532
  PAW double counting   =     10176.11220931   -10131.46882014
  entropy T*S    EENTRO =        -0.00247565
  eigenvalues    EBANDS =      -933.51637403
  atomic energy  EATOM  =      8146.07472429
  free energy    TOTEN  =      -149.93101722 eV

  energy without entropy =     -149.92854157  energy(sigma->0) =     -149.92977939

  average scaling for gradient   0.8885

 average (electrostatic) potential at core
  the test charge radii are     0.7672  1.0818  0.9892
  (the norm of the test charge is              1.0000)
       1 -26.4304       2 -26.4304       3 -26.4374       4 -26.4374       5 -79.1905
       6 -78.3686       7 -78.3686       8 -79.1918       9 -84.7759      10 -84.7825
      11 -84.7759      12 -84.7826

 E-fermi :   7.9722     XC(G=0): -11.8792     alpha+bet :-14.6383

 Fermi energy:         7.9722218647

 k-point     1 :       0.0000    0.0000    0.0000
  band No.  band energies     occupation
      1     -55.1892      2.00000
      2     -55.1878      2.00000
      3     -54.5692      2.00000
      4     -54.5671      2.00000
      5     -28.5881      2.00000
      6     -28.5867      2.00000
      7     -28.5839      2.00000
      8     -28.5825      2.00000
      9     -28.5548      2.00000
     10     -28.5521      2.00000
     11     -28.2632      2.00000
     12     -28.2616      2.00000
     13     -28.2409      2.00000
     14     -28.2393      2.00000
     15     -28.0006      2.00000
     16     -27.9980      2.00000
     17      -4.1131      2.00000
     18      -1.5700      2.00000
     19      -0.4961      2.00000
     20      -0.4947      2.00000
     21       0.1787      2.00000
     22       0.1808      2.00000
     23       1.6457      2.00000
     24       2.2259      2.00000
     25       2.8921      2.00000
     26       3.0012      2.00000
     27       3.2484      2.00000
     28       3.5761      2.00000
     29       3.7898      2.00000
     30       3.8032      2.00000
     31       4.2005      2.00000
     32       4.6062      2.00000
     33       4.6063      2.00000
     34       5.1096      2.00000
     35       5.5737      2.00000
     36       6.0703      2.00000
     37       6.0713      2.00000
     38       7.1744      2.00000
     39       7.6448      2.00000
     40       7.7834      2.00000
     41       8.0182      0.00114
     42       8.0198      0.00076
     43       8.1780      0.00000
     44       8.1791      0.00000
     45       8.3360      0.00000
     46       8.3371      0.00000
     47       8.4428      0.00000
     48       9.2954      0.00000
     49       9.2966      0.00000
     50       9.5548      0.00000
     51       9.8227      0.00000
     52       9.8244      0.00000
     53      10.1157      0.00000
     54      11.5578      0.00000

[...]

 k-point   116 :      -0.4286    0.4286    0.5000
  band No.  band energies     occupation
      1     -55.1892      2.00000
      2     -55.1878      2.00000
      3     -54.5691      2.00000
      4     -54.5672      2.00000
      5     -28.5899      2.00000
      6     -28.5848      2.00000
      7     -28.5846      2.00000
      8     -28.5832      2.00000
      9     -28.5553      2.00000
     10     -28.5527      2.00000
     11     -28.2602      2.00000
     12     -28.2597      2.00000
     13     -28.2426      2.00000
     14     -28.2399      2.00000
     15     -28.0014      2.00000
     16     -27.9977      2.00000
     17      -2.8829      2.00000
     18      -1.6863      2.00000
     19      -1.4753      2.00000
     20      -1.4612      2.00000
     21      -0.4447      2.00000
     22       0.2990      2.00000
     23       1.3071      2.00000
     24       1.9236      2.00000
     25       2.4218      2.00000
     26       2.4244      2.00000
     27       3.7081      2.00000
     28       4.0933      2.00000
     29       4.6215      2.00000
     30       4.6779      2.00000
     31       4.6795      2.00000
     32       4.7259      2.00000
     33       5.0222      2.00000
     34       5.0400      2.00000
     35       5.9077      2.00000
     36       5.9274      2.00000
     37       6.0457      2.00000
     38       6.8655      2.00000
     39       6.9947      2.00000
     40       7.3207      2.00000
     41       8.2944      0.00000
     42       8.3156      0.00000
     43       8.3320      0.00000
     44       8.4538      0.00000
     45       8.6248      0.00000
     46       8.8243      0.00000
     47       9.0440      0.00000
     48       9.2309      0.00000
     49       9.2427      0.00000
     50      10.1226      0.00000
     51      10.6879      0.00000
     52      10.7116      0.00000
     53      10.9595      0.00000
     54      11.4132      0.00000

 soft charge-density along one line, spin component           1
         0         1         2         3         4         5         6         7         8         9
 total charge-density along one line

------------------------ aborting loop because EDIFF is reached ----------------------------------------

  FREE ENERGIE OF THE ION-ELECTRON SYSTEM (eV)
  free  energy   TOTEN  =      -149.93101722 eV

  energy  without entropy=     -149.92854157  energy(sigma->0) =     -149.92977939

 writing wavefunctions