 vasp.6.2.0 18Jan21 (build Jan 05 2022 15:41:44) complex

 executed on             LinuxIFC date 2025.05.07  21:31:27

 INCAR:
   SYSTEM = routine with relax: pwdword
   ICHARG = 2
   NPAR = 6
   KPAR = 2
   NCORE = 2
   ADDGRID = T
   PREC = Acc
   ENCUT = 600
   METAGGA = R2SCAN
   LASPH = .TRUE.
   LMIXTAU = .FALSE.
   ALGO = A
   EDIFF = 1E-9
   NELM = 100
   NELMIN = 6
   IALGO = 38
   LREAL = F
   NSW = 0
   ISIF = -1
   ISMEAR = 0
   SIGMA = 0.02

 POTCAR:    PAW_PBE Mo_sv 02Feb2006
 POTCAR:    PAW_PBE Si 05Jan2001
|           W    W    AA    RRRRR   N    N  II  N    N   GGGG   !!!           |
|           W    W   A  A   R    R  NN   N  II  NN   N  G    G  !!!           |
|           W    W  A    A  R    R  N N  N  II  N N  N  G       !!!           |
|           W WW W  AAAAAA  RRRRR   N  N N  II  N  N N  G  GGG   !            |
|           WW  WW  A    A  R   R   N   NN  II  N   NN  G    G                |
|           W    W  A    A  R    R  N    N  II  N    N   GGGG   !!!           |
|     For optimal performance we recommend to set                             |
|       NCORE = 2 up to number-of-cores-per-socket                            |
|     This setting can greatly improve the performance of VASP for DFT.       |
|     The default, NCORE=1 might be grossly inefficient on modern             |
|     multi-core architectures or massively parallel machines. Do your        |
|     Unfortunately you need to use the default for GW and RPA                |
|     calculations (for HF NCORE is supported but not extensively tested      |
|     yet).                                                                   |

 POTCAR:    PAW_PBE Mo_sv 02Feb2006
   VRHFIN =Mo: 4p5s4d

   TITEL  = PAW_PBE Mo_sv 02Feb2006
   POMASS =   95.940; ZVAL   =   14.000    mass and valenz
   ENMAX  =  242.676; ENMIN  =  182.007 eV

 POTCAR:    PAW_PBE Si 05Jan2001
   VRHFIN =Si: s2p2

   TITEL  = PAW_PBE Si 05Jan2001
   POMASS =   28.085; ZVAL   =    4.000    mass and valenz
   ENMAX  =  245.345; ENMIN  =  184.009 eV

  PAW_PBE Mo_sv 02Feb2006               :
  PAW_PBE Si 05Jan2001                  :

 POSCAR: EA264
  positions in direct lattice

 METAGGA = R2SCA    LMAXTAU =  6    LMIXTAU =  F

 ion  position               nearest neighbor table
   1  0.000  0.500  0.250-   2 2.44   2 2.44   8 2.73   7 2.73   8 2.73   7 2.73   4 2.99   5 2.99
                             5 2.99   6 2.99   6 2.99   3 2.99   4 2.99   3 2.99
   2  0.000  0.500  0.750-   1 2.44   1 2.44   8 2.73   7 2.73   8 2.73   7 2.73   4 2.99   5 2.99
                             5 2.99   6 2.99   6 2.99   3 2.99   4 2.99   3 2.99
   3  0.500  0.750  0.000-   4 2.44   4 2.44   8 2.73   7 2.73   7 2.73   8 2.73   1 2.99   5 2.99
                             6 2.99   5 2.99   6 2.99   1 2.99   2 2.99   2 2.99
   4  0.500  0.250  0.000-   3 2.44   3 2.44   8 2.73   7 2.73   7 2.73   8 2.73   1 2.99   5 2.99
                             6 2.99   5 2.99   6 2.99   1 2.99   2 2.99   2 2.99
   5  0.750  0.000  0.500-   6 2.44   6 2.44   8 2.73   8 2.73   7 2.73   7 2.73   3 2.99   3 2.99
                             4 2.99   4 2.99   1 2.99   2 2.99   1 2.99   2 2.99
   6  0.250  0.000  0.500-   5 2.44   5 2.44   8 2.73   8 2.73   7 2.73   7 2.73   3 2.99   3 2.99
                             4 2.99   4 2.99   1 2.99   2 2.99   1 2.99   2 2.99
   7  0.500  0.500  0.500-   1 2.73   2 2.73   3 2.73   4 2.73   5 2.73   6 2.73   3 2.73   4 2.73
                             5 2.73   6 2.73   1 2.73   2 2.73
   8  0.000  0.000  0.000-   1 2.73   2 2.73   3 2.73   4 2.73   5 2.73   6 2.73   5 2.73   6 2.73
                             1 2.73   2 2.73   3 2.73   4 2.73

  LATTYP: Found a simple cubic cell.
 ALAT       =     4.8896951900

  Lattice vectors:

 A1 = (   4.8896951900,   0.0000000000,   0.0000000000)
 A2 = (   0.0000000000,   4.8896951900,   0.0000000000)
 A3 = (   0.0000000000,   0.0000000000,   4.8896951900)

Analysis of symmetry for initial positions (statically):
 Subroutine PRICEL returns:
 Original cell was already a primitive cell.

 Routine SETGRP: Setting up the symmetry group for a
 simple cubic supercell.

 Subroutine GETGRP returns: Found 48 space group operations
 (whereof 24 operations were pure point group operations)
 out of a pool of 48 trial point group operations.

The static configuration has the point symmetry T_h .
 The point group associated with its full space group is O_h .

Analysis of symmetry for dynamics (positions and initial velocities):
 Subroutine PRICEL returns:
 Original cell was already a primitive cell.

 Routine SETGRP: Setting up the symmetry group for a
 simple cubic supercell.

 Subroutine GETGRP returns: Found 48 space group operations
 (whereof 24 operations were pure point group operations)
 out of a pool of 48 trial point group operations.

The dynamic configuration has the point symmetry T_h .
 The point group associated with its full space group is O_h .

 Subroutine INISYM returns: Found 48 space group operations
 (whereof 24 operations are pure point group operations),
 and found     1 'primitive' translations

                                     Primitive cell

  volume of cell :     116.9083

  direct lattice vectors                    reciprocal lattice vectors
     4.889695190  0.000000000  0.000000000     0.204511725  0.000000000  0.000000000
     0.000000000  4.889695190  0.000000000     0.000000000  0.204511725  0.000000000
     0.000000000  0.000000000  4.889695190     0.000000000  0.000000000  0.204511725

  length of vectors
     4.889695190  4.889695190  4.889695190     0.204511725  0.204511725  0.204511725

  position of ions in fractional coordinates (direct lattice)
     0.000000000  0.500000000  0.250000000
     0.000000000  0.500000000  0.750000000
     0.500000000  0.750000000  0.000000000
     0.500000000  0.250000000  0.000000000
     0.750000000  0.000000000  0.500000000
     0.250000000  0.000000000  0.500000000
     0.500000000  0.500000000  0.500000000
     0.000000000  0.000000000  0.000000000

  ion indices of the primitive-cell ions
   primitive index   ion index
                 1           1
                 2           2
                 3           3
                 4           4
                 5           5
                 6           6
                 7           7
                 8           8

 KPOINTS: EA

Automatic generation of k-mesh.
 Grid dimensions read from file:
 generate k-points for:    7    7    7

 Generating k-lattice:

  Cartesian coordinates                     Fractional coordinates (reciprocal lattice)
     0.029215961  0.000000000  0.000000000     0.142857143  0.000000000  0.000000000
     0.000000000  0.029215961  0.000000000     0.000000000  0.142857143  0.000000000
     0.000000000  0.000000000  0.029215961     0.000000000  0.000000000  0.142857143

  Length of vectors
     0.029215961  0.029215961  0.029215961

  Shift w.r.t. Gamma in fractional coordinates (k-lattice)
     0.000000000  0.000000000  0.000000000

 Subroutine IBZKPT returns following result:

 Found     20 irreducible k-points:

 Following reciprocal coordinates:
            Coordinates               Weight
  0.000000  0.000000  0.000000      1.000000
  0.142857  0.000000  0.000000      6.000000
  0.285714  0.000000  0.000000      6.000000
  0.428571  0.000000  0.000000      6.000000
  0.142857  0.142857  0.000000     12.000000
  0.285714  0.142857  0.000000     24.000000
  0.428571  0.142857  0.000000     24.000000
  0.285714  0.285714  0.000000     12.000000
  0.428571  0.285714  0.000000     24.000000
  0.428571  0.428571  0.000000     12.000000
  0.142857  0.142857  0.142857      8.000000
  0.285714  0.142857  0.142857     24.000000
  0.428571  0.142857  0.142857     24.000000
  0.285714  0.285714  0.142857     24.000000
  0.428571  0.285714  0.142857     48.000000
  0.428571  0.428571  0.142857     24.000000
  0.285714  0.285714  0.285714      8.000000
  0.428571  0.285714  0.285714     24.000000
  0.428571  0.428571  0.285714     24.000000
  0.428571  0.428571  0.428571      8.000000

 Following cartesian coordinates:
            Coordinates               Weight
  0.000000  0.000000  0.000000      1.000000
  0.029216  0.000000  0.000000      6.000000
  0.058432  0.000000  0.000000      6.000000
  0.087648  0.000000  0.000000      6.000000
  0.029216  0.029216  0.000000     12.000000
  0.058432  0.029216  0.000000     24.000000
  0.087648  0.029216  0.000000     24.000000
  0.058432  0.058432  0.000000     12.000000
  0.087648  0.058432  0.000000     24.000000
  0.087648  0.087648  0.000000     12.000000
  0.029216  0.029216  0.029216      8.000000
  0.058432  0.029216  0.029216     24.000000
  0.087648  0.029216  0.029216     24.000000
  0.058432  0.058432  0.029216     24.000000
  0.087648  0.058432  0.029216     48.000000
  0.087648  0.087648  0.029216     24.000000
  0.058432  0.058432  0.058432      8.000000
  0.087648  0.058432  0.058432     24.000000
  0.087648  0.087648  0.058432     24.000000
  0.087648  0.087648  0.087648      8.000000

 SYSTEM =  routine with relax: pwdword
 POSCAR =  EA264

 Startparameter for this run:
   NWRITE =      2    write-flag & timer
   PREC   = acc       normal or accurate (medium, high low for compatibility)
   ISTART =      0    job   : 0-new  1-cont  2-samecut
   ICHARG =      2    charge: 1-file 2-atom 10-const
   ISPIN  =      1    spin polarized calculation?
   LNONCOLLINEAR =      F non collinear calculations
   LSORBIT =      F    spin-orbit coupling
   INIWAV =      1    electr: 0-lowe 1-rand  2-diag
   LASPH  =      T    aspherical Exc in radial PAW
   METAGGA=      F    non-selfconsistent MetaGGA calc.

 Electronic Relaxation 1
   ENCUT  =  600.0 eV  44.10 Ry    6.64 a.u.   9.77  9.77  9.77*2*pi/ulx,y,z
   ENINI  =  600.0     initial cutoff
   ENAUG  =  446.0 eV  augmentation charge cutoff
   NELM   =    100;   NELMIN=  6; NELMDL= -5     # of ELM steps
   EDIFF  = 0.1E-08   stopping-criterion for ELM
   LREAL  =      F    real-space projection
   NLSPLINE    = F    spline interpolate recip. space projectors
   LCOMPAT=      F    compatible to vasp.4.4
   GGA_COMPAT  = T    GGA compatible to vasp.4.4-vasp.4.6
   LMAXPAW     = -100 max onsite density
   LMAXMIX     =    2 max onsite mixed and CHGCAR
   VOSKOWN=      0    Vosko Wilk Nusair interpolation
   ROPT   =    0.00000   0.00000
 Ionic relaxation
   EDIFFG = 0.1E-07   stopping-criterion for IOM
   NSW    =      0    number of steps for IOM
   NBLOCK =      1;   KBLOCK =      1    inner block; outer block
   IBRION =     -1    ionic relax: 0-MD 1-quasi-New 2-CG
   NFREE  =      0    steps in history (QN), initial steepest desc. (CG)
   ISIF   =     -1    stress and relaxation
   IWAVPR =     10    prediction:  0-non 1-charg 2-wave 3-comb
   ISYM   =      2    0-nonsym 1-usesym 2-fastsym
   LCORR  =      T    Harris-Foulkes like correction to forces

   POTIM  = 0.5000    time-step for ionic-motion
   TEIN   =    0.0    initial temperature
   TEBEG  =    0.0;   TEEND  =   0.0 temperature during run
   SMASS  =  -3.00    Nose mass-parameter (am)
   estimated Nose-frequenzy (Omega)   =  0.10E-29 period in steps = 0.13E+47 mass=  -0.546E-27a.u.
[...]
   TURBO    =      0    0=normal 1=particle mesh
   IRESTART =      0    0=no restart 2=restart with 2 vectors
   NREBOOT  =      0    no. of reboots
   NMIN     =      0    reboot dimension
   EREF     =   0.00    reference energy to select bands
   IMIX   =      4    mixing-type and parameters
     AMIX     =   0.40;   BMIX     =  1.00
     AMIX_MAG =   1.60;   BMIX_MAG =  1.00
     AMIN     =   0.10
     WC   =   100.;   INIMIX=   1;  MIXPRE=   1;  MAXMIX= -45

 Intra band minimization:
   WEIMIN = 0.0000     energy-eigenvalue tresh-hold
   EBREAK =  0.42E-11  absolut break condition
   DEPER  =   0.30     relativ break condition

   TIME   =   0.40     timestep for ELM

  volume/ion in A,a.u.               =      14.61        98.62
  Fermi-wavevector in a.u.,A,eV,Ry     =   1.511433  2.856195 31.081565  2.284431
  Thomas-Fermi vector in A             =   2.621491

 Write flags
   LWAVE        =      T    write WAVECAR
   LDOWNSAMPLE  =      F    k-point downsampling of WAVECAR
   LCHARG       =      T    write CHGCAR
   LVTOT        =      F    write LOCPOT, total local potential
   LVHAR        =      F    write LOCPOT, Hartree potential only
   LELF         =      F    write electronic localiz. function (ELF)
   LORBIT       =      0    0 simple, 1 ext, 2 COOP (PROOUT), +10 PAW based schemes

 Dipole corrections
   LMONO  =      F    monopole corrections only (constant potential shift)
   LDIPOL =      F    correct potential (dipole corrections)
   IDIPOL =      0    1-x, 2-y, 3-z, 4-all directions
   EPSILON=  1.0000000 bulk dielectric constant

 Exchange correlation treatment:
   GGA     =    --    GGA type
   VOSKOWN=      0    Vosko Wilk Nusair interpolation
   LHFCALC =     F    Hartree Fock is set to
   LHFONE  =     F    Hartree Fock one center treatment
   AEXX    =    0.0000 exact exchange contribution

 Linear response parameters
   LEPSILON=     F    determine dielectric tensor
   LRPA    =     F    only Hartree local field effects (RPA)
   LNABLA  =     F    use nabla operator in PAW spheres
   LVEL    =     F    velocity operator in full k-point grid
   LINTERFAST=   F  fast interpolation
   KINTER  =     0    interpolate to denser k-point grid
   CSHIFT  =0.1000    complex shift for real part using Kramers Kronig
   OMEGAMAX=  -1.0    maximum frequency
   DEG_THRESHOLD= 0.2000000E-02 threshold for treating states as degnerate
   RTIME   =   -0.100 relaxation time in fs
  (WPLASMAI=    0.000 imaginary part of plasma frequency in eV, 0.658/RTIME)
   DFIELD  = 0.0000000 0.0000000 0.0000000 field for delta impulse in time

 Orbital magnetization related:
   ORBITALMAG=     F  switch on orbital magnetization
   LCHIMAG   =     F  perturbation theory with respect to B field
   DQ        =  0.001000  dq finite difference perturbation B field
   LLRAUG    =     F  two centre corrections for induced B field

 Static calculation
 charge density and potential will be updated during run
 non-spin polarized calculation
 Conjugate gradient for all bands (Freysoldt, et al. PRB 79, 241103 (2009))
 preconditioned conjugated gradient
 perform sub-space diagonalisation
    before iterative eigenvector-optimisation
 modified Broyden-mixing scheme, WC =      100.0
 initial mixing is a Kerker type mixing with AMIX =  0.4000 and BMIX =      1.0000
 Hartree-type preconditioning will be used
 using additional bands           14
 reciprocal scheme for non local part
 use partial core corrections
 no Harris-corrections to forces
 use gradient corrections
 use of overlap-Matrix (Vanderbilt PP)
 Gauss-broadening in eV      SIGMA  =   0.02

  energy-cutoff  :      600.00
  volume of cell :      116.91
      direct lattice vectors                 reciprocal lattice vectors
     4.889695190  0.000000000  0.000000000     0.204511725  0.000000000  0.000000000
     0.000000000  4.889695190  0.000000000     0.000000000  0.204511725  0.000000000
     0.000000000  0.000000000  4.889695190     0.000000000  0.000000000  0.204511725

  length of vectors
     4.889695190  4.889695190  4.889695190     0.204511725  0.204511725  0.204511725

 k-points in units of 2pi/SCALE and weight: EA
   0.00000000  0.00000000  0.00000000       0.003
   0.02921596  0.00000000  0.00000000       0.017
   0.05843192  0.00000000  0.00000000       0.017
   0.08764788  0.00000000  0.00000000       0.017
   0.02921596  0.02921596  0.00000000       0.035
   0.05843192  0.02921596  0.00000000       0.070
   0.08764788  0.02921596  0.00000000       0.070
   0.05843192  0.05843192  0.00000000       0.035
   0.08764788  0.05843192  0.00000000       0.070
   0.08764788  0.08764788  0.00000000       0.035
   0.02921596  0.02921596  0.02921596       0.023
   0.05843192  0.02921596  0.02921596       0.070
   0.08764788  0.02921596  0.02921596       0.070
   0.05843192  0.05843192  0.02921596       0.070
   0.08764788  0.05843192  0.02921596       0.140
   0.08764788  0.08764788  0.02921596       0.070
   0.05843192  0.05843192  0.05843192       0.023
   0.08764788  0.05843192  0.05843192       0.070
   0.08764788  0.08764788  0.05843192       0.070
   0.08764788  0.08764788  0.08764788       0.023

 k-points in reciprocal lattice and weights: EA
   0.00000000  0.00000000  0.00000000       0.003
   0.14285714  0.00000000  0.00000000       0.017
   0.28571429  0.00000000  0.00000000       0.017
   0.42857143  0.00000000  0.00000000       0.017
   0.14285714  0.14285714  0.00000000       0.035
   0.28571429  0.14285714  0.00000000       0.070
   0.42857143  0.14285714  0.00000000       0.070
   0.28571429  0.28571429  0.00000000       0.035
   0.42857143  0.28571429  0.00000000       0.070
   0.42857143  0.42857143  0.00000000       0.035
   0.14285714  0.14285714  0.14285714       0.023
   0.28571429  0.14285714  0.14285714       0.070
   0.42857143  0.14285714  0.14285714       0.070
   0.28571429  0.28571429  0.14285714       0.070
   0.42857143  0.28571429  0.14285714       0.140
   0.42857143  0.42857143  0.14285714       0.070
   0.28571429  0.28571429  0.28571429       0.023
   0.42857143  0.28571429  0.28571429       0.070
   0.42857143  0.42857143  0.28571429       0.070
   0.42857143  0.42857143  0.42857143       0.023

 position of ions in fractional coordinates (direct lattice)
   0.00000000  0.50000000  0.25000000
   0.00000000  0.50000000  0.75000000
   0.50000000  0.75000000  0.00000000
   0.50000000  0.25000000  0.00000000
   0.75000000  0.00000000  0.50000000
   0.25000000  0.00000000  0.50000000
   0.50000000  0.50000000  0.50000000
   0.00000000  0.00000000  0.00000000

 position of ions in cartesian coordinates  (Angst):
   0.00000000  2.44484760  1.22242380
   0.00000000  2.44484760  3.66727139
   2.44484760  3.66727139  0.00000000
   2.44484760  1.22242380  0.00000000
   3.66727139  0.00000000  2.44484760
   1.22242380  0.00000000  2.44484760
   2.44484760  2.44484760  2.44484760
   0.00000000  0.00000000  0.00000000

 k-point   1 :   0.0000 0.0000 0.0000  plane waves:    3887
 k-point   2 :   0.1429 0.0000 0.0000  plane waves:    3887
 k-point   3 :   0.2857 0.0000 0.0000  plane waves:    3904
 k-point   4 :   0.4286 0.0000 0.0000  plane waves:    3912
 k-point   5 :   0.1429 0.1429 0.0000  plane waves:    3888
 k-point   6 :   0.2857 0.1429 0.0000  plane waves:    3898
 k-point   7 :   0.4286 0.1429 0.0000  plane waves:    3917
 k-point   8 :   0.2857 0.2857 0.0000  plane waves:    3900
 k-point   9 :   0.4286 0.2857 0.0000  plane waves:    3894
 k-point  10 :   0.4286 0.4286 0.0000  plane waves:    3920
 k-point  11 :   0.1429 0.1429 0.1429  plane waves:    3905
 k-point  12 :   0.2857 0.1429 0.1429  plane waves:    3898
 k-point  13 :   0.4286 0.1429 0.1429  plane waves:    3906
 k-point  14 :   0.2857 0.2857 0.1429  plane waves:    3899
 k-point  15 :   0.4286 0.2857 0.1429  plane waves:    3893
 k-point  16 :   0.4286 0.4286 0.1429  plane waves:    3900
 k-point  17 :   0.2857 0.2857 0.2857  plane waves:    3902
 k-point  18 :   0.4286 0.2857 0.2857  plane waves:    3904
 k-point  19 :   0.4286 0.4286 0.2857  plane waves:    3909
 k-point  20 :   0.4286 0.4286 0.4286  plane waves:    3903

 maximum and minimum number of plane-waves per node :      1976     1933

 maximum number of plane-waves:      3920
 maximum index in each direction:
   IXMAX=    9   IYMAX=    9   IZMAX=    9
   IXMIN=  -10   IYMIN=  -10   IZMIN=  -10

 parallel 3D FFT for wavefunctions:
    minimum data exchange during FFTs selected (reduces bandwidth)
 parallel 3D FFT for charge:
    minimum data exchange during FFTs selected (reduces bandwidth)

 Broyden mixing: mesh for mixing (old mesh)
   NGX = 19   NGY = 19   NGZ = 19
  (NGX  = 80   NGY  = 80   NGZ  = 80)
  gives a total of   6859 points

 initial charge density was supplied:
 charge density of overlapping atoms calculated
 number of electron      92.0000000 magnetization
 keeping initial charge density in first step

 Maximum index for augmentation-charges        18086 (set IRDMAX)

 First call to EWALD:  gamma=   0.362
 Maximum number of real-space cells 3x 3x 3
 Maximum number of reciprocal cells 3x 3x 3

--------------------------------------- Iteration      1(   1)  ---------------------------------------

 eigenvalue-minimisations  :  2400
 total energy-change (2. order) : 0.1063539E+04  (-0.6458692E+04)
 number of electron      92.0000000 magnetization
 augmentation part       92.0000000 magnetization

 Free energy of the ion-electron system (eV)
  alpha Z        PSCENC =       634.77139066
  Ewald energy   TEWEN  =     -9626.75889130
  -Hartree energ DENC   =     -2123.17887800
  -exchange      EXHF   =         0.00000000
  -V(xc)+E(xc)   XCENC  =       451.38018743
  PAW double counting   =      9083.48144687    -9041.76752107
  entropy T*S    EENTRO =        -0.00138552
  eigenvalues    EBANDS =       305.78487534
  atomic energy  EATOM  =     11379.82824371
  free energy    TOTEN  =      1063.53946812 eV

  energy without entropy =     1063.54085364  energy(sigma->0) =     1063.54016088

[...]

 eigenvalue-minimisations  :  2652
 total energy-change (2. order) :-0.1235541E+04  (-0.1197937E+04)
 number of electron      92.0000000 magnetization
 augmentation part       92.0000000 magnetization

[...]

 eigenvalue-minimisations  :     0
 total energy-change (2. order) :-0.7998096E-08  ( 0.4030472E-06)
 number of electron      92.0000001 magnetization
 augmentation part       14.3494630 magnetization

[...]

 eigenvalue-minimisations  :     0
 total energy-change (2. order) :-0.8997449E-07  (-0.2790529E-09)
 number of electron      92.0000001 magnetization
 augmentation part       14.3494618 magnetization

[...]

--------------------------------------- Iteration      1(  28)  ---------------------------------------

 eigenvalue-minimisations  :     0
 total energy-change (2. order) : 0.9913492E-09  (-0.8555362E-10)
 number of electron      92.0000001 magnetization
 augmentation part       14.3494590 magnetization

 Free energy of the ion-electron system (eV)
  alpha Z        PSCENC =       634.77139066
  Ewald energy   TEWEN  =     -9626.75889130
  -Hartree energ DENC   =     -1979.91411518
  -exchange      EXHF   =         0.00000000
  -V(xc)+E(xc)   XCENC  =       459.08096275
  PAW double counting   =     11749.48633632   -11728.38377242
  entropy T*S    EENTRO =        -0.00125746
  eigenvalues    EBANDS =     -1064.71228928
  atomic energy  EATOM  =     11379.82824371
  free energy    TOTEN  =      -176.60339219 eV

  energy without entropy =     -176.60213474  energy(sigma->0) =     -176.60276347

  average scaling for gradient   0.8288

 average (electrostatic) potential at core
  the test charge radii are     1.0818  0.9892
  (the norm of the test charge is              1.0000)
       1 -74.1528       2 -74.1528       3 -74.1528       4 -74.1528       5 -74.1528
       6 -74.1528       7 -79.8793       8 -79.8793

 E-fermi :  12.7732     XC(G=0): -14.2615     alpha+bet :-20.1384

 Fermi energy:        12.7732028662

 k-point     1 :       0.0000    0.0000    0.0000
  band No.  band energies     occupation
      1     -50.5040      2.00000
      2     -50.3751      2.00000
      3     -50.3751      2.00000
      4     -50.0150      2.00000
      5     -50.0150      2.00000
      6     -50.0150      2.00000
      7     -25.0916      2.00000
      8     -25.0916      2.00000
      9     -24.8717      2.00000
     10     -24.0272      2.00000
     11     -24.0272      2.00000
     12     -24.0272      2.00000
     13     -23.4928      2.00000
     14     -23.4928      2.00000
     15     -23.4928      2.00000
     16     -23.4593      2.00000
     17     -23.4593      2.00000
     18     -23.4593      2.00000
     19     -23.3244      2.00000
     20     -23.3244      2.00000
     21     -23.3244      2.00000
     22     -22.5329      2.00000
     23     -22.5329      2.00000
     24     -22.5329      2.00000
     25       1.6332      2.00000
     26       3.3802      2.00000
     27       7.0976      2.00000
     28       7.0976      2.00000
     29       7.0976      2.00000
     30       7.5475      2.00000
     31       7.5475      2.00000
     32       7.5475      2.00000
     33       7.8140      2.00000
     34       7.8140      2.00000
     35       8.2981      2.00000
     36       9.5021      2.00000
     37       9.5021      2.00000
     38       9.5021      2.00000
     39       9.6336      2.00000
     40      10.4565      2.00000
     41      10.4565      2.00000
     42      10.4565      2.00000
     43      11.0921      2.00000
     44      11.0921      2.00000
     45      14.1096      0.00000
     46      14.1096      0.00000
     47      14.1096      0.00000
     48      15.1044      0.00000
     49      15.2579      0.00000
     50      15.2579      0.00000
     51      15.5728      0.00000
     52      15.5728      0.00000
     53      15.5728      0.00000
     54      15.6371      0.00000
     55      15.6371      0.00000
     56      15.6510      0.00000
     57      15.6510      0.00000
     58      15.6510      0.00000
     59      16.9342      0.00000
     60      17.7594      0.00000

[...]

 k-point    20 :       0.4286    0.4286    0.4286
  band No.  band energies     occupation
      1     -50.2774      2.00000
      2     -50.2604      2.00000
      3     -50.2604      2.00000
      4     -50.1788      2.00000
      5     -50.1788      2.00000
      6     -50.1682      2.00000
      7     -24.1733      2.00000
      8     -24.1733      2.00000
      9     -24.1519      2.00000
     10     -23.9175      2.00000
     11     -23.9164      2.00000
     12     -23.7552      2.00000
     13     -23.7552      2.00000
     14     -23.6952      2.00000
     15     -23.5533      2.00000
     16     -23.5085      2.00000
     17     -23.5085      2.00000
     18     -23.4430      2.00000
     19     -23.4430      2.00000
     20     -23.4056      2.00000
     21     -23.3942      2.00000
     22     -23.3942      2.00000
     23     -23.3888      2.00000
     24     -23.3888      2.00000
     25       3.6271      2.00000
     26       3.6437      2.00000
     27       7.1900      2.00000
     28       7.3597      2.00000
     29       7.3597      2.00000
     30       7.9306      2.00000
     31       7.9306      2.00000
     32       8.1609      2.00000
     33       9.1544      2.00000
     34       9.1903      2.00000
     35       9.1903      2.00000
     36       9.5802      2.00000
     37       9.5802      2.00000
     38       9.7990      2.00000
     39      10.8987      2.00000
     40      10.8987      2.00000
     41      11.0161      2.00000
     42      11.0161      2.00000
     43      11.0399      2.00000
     44      11.0813      2.00000
     45      11.0813      2.00000
     46      11.4505      2.00000
     47      11.9552      2.00000
     48      11.9552      2.00000
     49      13.9401      0.00000
     50      13.9401      0.00000
     51      14.1202      0.00000
     52      14.1294      0.00000
     53      14.5045      0.00000
     54      14.5045      0.00000
     55      14.5089      0.00000
     56      14.8831      0.00000
     57      14.8831      0.00000
     58      15.3342      0.00000
     59      15.4841      0.00000
     60      15.4842      0.00000

 soft charge-density along one line, spin component           1
         0         1         2         3         4         5         6         7         8         9
 total charge-density along one line

------------------------ aborting loop because EDIFF is reached ----------------------------------------

  FREE ENERGIE OF THE ION-ELECTRON SYSTEM (eV)
  free  energy   TOTEN  =      -176.60339219 eV

  energy  without entropy=     -176.60213474  energy(sigma->0) =     -176.60276347

 writing wavefunctions