 vasp.6.2.0 18Jan21 (build Jan 05 2022 15:41:44) complex

 executed on             LinuxIFC date 2025.05.07  18:04:57

 INCAR:
   SYSTEM = routine with relax: pwdword
   ICHARG = 2
   NPAR = 6
   KPAR = 2
   NCORE = 2
   ADDGRID = T
   PREC = Acc
   ENCUT = 600
   METAGGA = R2SCAN
   LASPH = .TRUE.
   LMIXTAU = .FALSE.
   ALGO = A
   EDIFF = 1E-9
   NELM = 100
   NELMIN = 6
   IALGO = 38
   LREAL = F
   NSW = 0
   ISIF = -1
   ISMEAR = 0
   SIGMA = 0.02

 POTCAR:    PAW_PBE B 06Sep2000
 POTCAR:    PAW_PBE Mo_sv 02Feb2006
 POTCAR:    PAW_PBE Si 05Jan2001
|           W    W    AA    RRRRR   N    N  II  N    N   GGGG   !!!           |
|           W    W   A  A   R    R  NN   N  II  NN   N  G    G  !!!           |
|           W    W  A    A  R    R  N N  N  II  N N  N  G       !!!           |
|           W WW W  AAAAAA  RRRRR   N  N N  II  N  N N  G  GGG   !            |
|           WW  WW  A    A  R   R   N   NN  II  N   NN  G    G                |
|           W    W  A    A  R    R  N    N  II  N    N   GGGG   !!!           |
|     For optimal performance we recommend to set                             |
|       NCORE = 2 up to number-of-cores-per-socket                            |
|     This setting can greatly improve the performance of VASP for DFT.       |
|     The default, NCORE=1 might be grossly inefficient on modern             |
|     multi-core architectures or massively parallel machines. Do your        |
|     Unfortunately you need to use the default for GW and RPA                |
|     calculations (for HF NCORE is supported but not extensively tested      |
|     yet).                                                                   |

 POTCAR:    PAW_PBE B 06Sep2000
   VRHFIN =B: s2p1

   TITEL  = PAW_PBE B 06Sep2000
   POMASS =   10.811; ZVAL   =    3.000    mass and valenz
   ENMAX  =  318.614; ENMIN  =  238.960 eV

 POTCAR:    PAW_PBE Mo_sv 02Feb2006
   VRHFIN =Mo: 4p5s4d

   TITEL  = PAW_PBE Mo_sv 02Feb2006
   POMASS =   95.940; ZVAL   =   14.000    mass and valenz
   ENMAX  =  242.676; ENMIN  =  182.007 eV

 POTCAR:    PAW_PBE Si 05Jan2001
   VRHFIN =Si: s2p2

   TITEL  = PAW_PBE Si 05Jan2001
   POMASS =   28.085; ZVAL   =    4.000    mass and valenz
   ENMAX  =  245.345; ENMIN  =  184.009 eV

  PAW_PBE B 06Sep2000                   :
  PAW_PBE Mo_sv 02Feb2006               :
  PAW_PBE Si 05Jan2001                  :

 POSCAR: EA142
  positions in direct lattice

 METAGGA = R2SCA    LMAXTAU =  6    LMIXTAU =  F

 ion  position               nearest neighbor table
   1  0.500  0.000  0.000-  12 1.21  15 1.21   6 2.27  10 2.27   8 2.38   7 2.38
   2  0.000  0.000  0.500-  16 1.21  17 1.21   6 2.27  10 2.27   9 2.38   5 2.38
   3  0.500  0.500  0.500-  11 1.21  18 1.21  10 2.27   6 2.27   5 2.38   9 2.38
   4  0.000  0.500  0.000-  13 1.21  14 1.21   6 2.27  10 2.27   8 2.38   7 2.38
   5  0.801  0.699  0.500-  16 2.02  18 2.02   2 2.38   3 2.38  13 2.74  14 2.74  12 2.74  15 2.74
                            11 3.19  17 3.19   7 3.27   8 3.27   8 3.27   7 3.27   6 3.29   6 3.29
   6  0.250  0.250  0.000-   3 2.27   2 2.27   4 2.27   1 2.27  16 2.57  18 2.57  11 2.57  17 2.57
                            12 2.57  15 2.57  14 2.57  13 2.57   5 3.29   5 3.29   7 3.29   8 3.29
   7  0.301  0.801  0.102-  14 2.02  12 2.02   4 2.38   1 2.38  16 2.74  11 2.74  17 2.74  18 2.74
                            15 3.19  13 3.19   9 3.27   5 3.27   5 3.27   9 3.27  10 3.29   6 3.29
   8  0.699  0.199  0.898-  13 2.02  15 2.02   4 2.38   1 2.38  18 2.74  17 2.74  11 2.74  16 2.74
                            12 3.19  14 3.19   5 3.27   9 3.27   9 3.27   5 3.27   6 3.29  10 3.29
   9  0.199  0.301  0.500-  11 2.02  17 2.02   2 2.38   3 2.38  14 2.74  13 2.74  12 2.74  15 2.74
                            18 3.19  16 3.19   7 3.27   8 3.27   8 3.27   7 3.27  10 3.29  10 3.29
  10  0.750  0.750  0.000-   2 2.27   3 2.27   4 2.27   1 2.27  17 2.57  11 2.57  16 2.57  18 2.57
                            15 2.57  12 2.57  13 2.57  14 2.57   9 3.29   9 3.29   8 3.29   7 3.29
  11  0.508  0.315  0.500-   3 1.21   9 2.02  18 2.41  10 2.57   6 2.57  15 2.57  14 2.57   7 2.74
                             8 2.74  16 2.78  17 3.02   5 3.19
  12  0.315  0.815  0.807-   1 1.21   7 2.02  15 2.41  10 2.57   6 2.57  17 2.57  18 2.57   9 2.74
                             5 2.74  13 2.78  14 3.02   8 3.19
  13  0.008  0.508  0.193-   4 1.21   8 2.02  14 2.41  10 2.57   6 2.57  17 2.57  18 2.57   5 2.74
                             9 2.74  12 2.78  15 3.02   7 3.19
  14  0.992  0.492  0.807-   4 1.21   7 2.02  13 2.41  10 2.57   6 2.57  16 2.57  11 2.57   5 2.74
                             9 2.74  15 2.78  12 3.02   8 3.19
  15  0.685  0.185  0.193-   1 1.21   8 2.02  12 2.41  10 2.57   6 2.57  11 2.57  16 2.57   5 2.74
                             9 2.74  14 2.78  13 3.02   7 3.19
  16  0.815  0.008  0.500-   2 1.21   5 2.02  17 2.41   6 2.57  10 2.57  15 2.57  14 2.57   7 2.74
                             8 2.74  11 2.78  18 3.02   9 3.19
  17  0.185  0.992  0.500-   2 1.21   9 2.02  16 2.41  10 2.57   6 2.57  12 2.57  13 2.57   8 2.74
                             7 2.74  18 2.78  11 3.02   5 3.19
  18  0.492  0.685  0.500-   3 1.21   5 2.02  11 2.41   6 2.57  10 2.57  12 2.57  13 2.57   8 2.74
                             7 2.74  17 2.78  16 3.02   9 3.19

  Warning from LATTYP: Got some problem with cell dimensions!
  Tried to take original basis but could not verify dimensions!
  LATTYP: Found a base centered monoclinic cell.
 ALAT       =     9.0764160466
 B/A-ratio  =     1.0000157334
 C/A-ratio  =     0.7178924486
 COS(beta)  =    -0.6964722003

  Lattice vectors:

 A1 = (   1.7886945420,  -5.2916263992,  -3.1607869411)
 A2 = (  -5.5857620889,   0.0000000000,  -3.1607869411)
 A3 = (   3.7970675468,   5.2916263992,  -0.1944161178)

Analysis of symmetry for initial positions (statically):
 Subroutine PRICEL returns:
 Original cell was already a primitive cell.

 Routine SETGRP: Setting up the symmetry group for a
 base centered monoclinic supercell.

 Subroutine GETGRP returns: Found  4 space group operations
 (whereof  2 operations were pure point group operations)
 out of a pool of  4 trial point group operations.

The static configuration has the point symmetry S_2 .
 The point group associated with its full space group is C_2h.

Analysis of symmetry for dynamics (positions and initial velocities):
 Subroutine PRICEL returns:
 Original cell was already a primitive cell.

 Routine SETGRP: Setting up the symmetry group for a
 base centered monoclinic supercell.

 Subroutine GETGRP returns: Found  4 space group operations
 (whereof  2 operations were pure point group operations)
 out of a pool of  4 trial point group operations.

The dynamic configuration has the point symmetry S_2 .
 The point group associated with its full space group is C_2h.

 Subroutine INISYM returns: Found  4 space group operations
 (whereof  2 operations are pure point group operations),
 and found     1 'primitive' translations

                                     Primitive cell

  volume of cell :     192.5981

  direct lattice vectors                    reciprocal lattice vectors
     5.585762089  0.000000000 -3.355203059     0.179026601  0.060515214  0.000000000
    -1.788694542  5.291626399 -3.355203059     0.000000000  0.188977816  0.000000000
     0.000000000  0.000000000  6.515990000     0.092184089  0.128468549  0.153468621

  length of vectors
     6.515990000  6.515990000  6.515990000     0.188977816  0.188977816  0.220351292

  position of ions in fractional coordinates (direct lattice)
     0.500000000  0.000000000  1.000000000
     0.000000000  0.000000000  0.500000000
     0.500000000  0.500000000  0.500000000
     0.000000000  0.500000000  0.000000000
     0.800750000  0.699250000  0.500000000
     0.250000000  0.250000000  1.000000000
     0.300750000  0.800750000  0.101500000
     0.699250000  0.199250000  0.898500000
     0.199250000  0.300750000  0.500000000
     0.750000000  0.750000000  1.000000000
     0.508310000  0.314860000  0.500000000
     0.314860000  0.814860000  0.806540000
     0.008310000  0.508310000  0.193460000
     0.991690000  0.491690000  0.806540000
     0.685140000  0.185140000  0.193460000
     0.814860000  0.008310000  0.500000000
     0.185140000  0.991690000  0.500000000
     0.491690000  0.685140000  0.500000000

  ion indices of the primitive-cell ions
   primitive index   ion index
                 1           1
                 2           2
                 3           3
                 4           4
                 5           5
                 6           6
                 7           7
                 8           8
                 9           9
                10          10
                11          11
                12          12
                13          13
                14          14
                15          15
                16          16
                17          17
                18          18

 KPOINTS: EA

Automatic generation of k-mesh.
 Grid dimensions read from file:
 generate k-points for:    7    7    8

 Generating k-lattice:

  Cartesian coordinates                     Fractional coordinates (reciprocal lattice)
     0.025575229  0.008645031  0.000000000     0.142857143  0.000000000  0.000000000
     0.000000000  0.026996831  0.000000000     0.000000000  0.142857143  0.000000000
     0.011523011  0.016058569  0.019183578    -0.000000000  0.000000000  0.125000000

  Length of vectors
     0.026996831  0.026996831  0.027543911

  Shift w.r.t. Gamma in fractional coordinates (k-lattice)
     0.000000000  0.000000000  0.000000000

 Subroutine IBZKPT returns following result:

 Found    116 irreducible k-points:

 Following reciprocal coordinates:
            Coordinates               Weight
  0.000000  0.000000  0.000000      1.000000
  0.142857  0.000000  0.000000      4.000000
  0.285714  0.000000  0.000000      4.000000
  0.428571  0.000000  0.000000      4.000000
  0.142857  0.142857  0.000000      2.000000
  0.285714  0.142857  0.000000      4.000000
  0.428571  0.142857  0.000000      4.000000
 -0.428571  0.142857  0.000000      4.000000
 -0.285714  0.142857  0.000000      4.000000
 -0.142857  0.142857  0.000000      2.000000
  0.285714  0.285714  0.000000      2.000000
  0.428571  0.285714  0.000000      4.000000
 -0.428571  0.285714  0.000000      4.000000
 -0.285714  0.285714  0.000000      2.000000
  0.428571  0.428571  0.000000      2.000000
 -0.428571  0.428571  0.000000      2.000000
 -0.000000 -0.000000  0.125000      2.000000
  0.142857  0.000000  0.125000      4.000000
  0.285714 -0.000000  0.125000      4.000000
  0.428571  0.000000  0.125000      4.000000
 -0.428571 -0.000000  0.125000      4.000000
 -0.285714  0.000000  0.125000      4.000000
 -0.142857  0.000000  0.125000      4.000000
  0.142857  0.142857  0.125000      2.000000
  0.285714  0.142857  0.125000      4.000000
  0.428571  0.142857  0.125000      4.000000
 -0.428571  0.142857  0.125000      4.000000
 -0.285714  0.142857  0.125000      4.000000
 -0.142857  0.142857  0.125000      4.000000
  0.285714  0.285714  0.125000      2.000000
[...]
   0.28571429  0.14285714  0.25000000       0.010
   0.42857143  0.14285714  0.25000000       0.010
  -0.42857143  0.14285714  0.25000000       0.010
  -0.28571429  0.14285714  0.25000000       0.010
  -0.14285714  0.14285714  0.25000000       0.010
   0.28571429  0.28571429  0.25000000       0.005
   0.42857143  0.28571429  0.25000000       0.010
  -0.42857143  0.28571429  0.25000000       0.010
[...]
   0.14285714  0.00000000  0.50000000       0.010
   0.28571429  0.00000000  0.50000000       0.010
   0.42857143  0.00000000  0.50000000       0.010
   0.14285714  0.14285714  0.50000000       0.005
   0.28571429  0.14285714  0.50000000       0.010
   0.42857143  0.14285714  0.50000000       0.010
  -0.42857143  0.14285714  0.50000000       0.010
  -0.28571429  0.14285714  0.50000000       0.010
  -0.14285714  0.14285714  0.50000000       0.005
   0.28571429  0.28571429  0.50000000       0.005
   0.42857143  0.28571429  0.50000000       0.010
  -0.42857143  0.28571429  0.50000000       0.010
  -0.28571429  0.28571429  0.50000000       0.005
   0.42857143  0.42857143  0.50000000       0.005
  -0.42857143  0.42857143  0.50000000       0.005

 position of ions in fractional coordinates (direct lattice)
   0.50000000  0.00000000  0.00000000
   0.00000000  0.00000000  0.50000000
   0.50000000  0.50000000  0.50000000
   0.00000000  0.50000000  0.00000000
   0.80075000  0.69925000  0.50000000
   0.25000000  0.25000000  0.00000000
   0.30075000  0.80075000  0.10150000
   0.69925000  0.19925000  0.89850000
   0.19925000  0.30075000  0.50000000
   0.75000000  0.75000000  0.00000000
   0.50831000  0.31486000  0.50000000
   0.31486000  0.81486000  0.80654000
   0.00831000  0.50831000  0.19346000
   0.99169000  0.49169000  0.80654000
   0.68514000  0.18514000  0.19346000
   0.81486000  0.00831000  0.50000000
   0.18514000  0.99169000  0.50000000
   0.49169000  0.68514000  0.50000000

 position of ions in cartesian coordinates  (Angst):
   2.79288104  0.00000000 -1.67760153
   0.00000000  0.00000000  3.25799500
   1.89853377  2.64581320 -0.09720806
  -0.89434727  2.64581320 -1.67760153
   3.22205433  3.70016976 -1.77480959
   0.94926689  1.32290660 -1.67760153
   0.24762079  4.23726984 -3.03438318
   3.54944675  1.05435656  2.83996707
   0.57501321  1.59145664  1.58039347
   2.84780066  3.96871980 -5.03280459
   2.27611036  1.66612149  0.49609250
   0.30119742  4.31193469  1.46496657
  -0.86279364  2.68978661 -0.47278158
   4.65986119  2.60183978  0.27836546
   3.49587013  0.97969171 -1.65938269
   4.53675004  0.04397342  0.49609250
  -0.73968250  5.24765298 -0.69050862
   1.52095718  3.62550491 -0.69050862

 k-point   1 :   0.0000 0.0000 0.0000  plane waves:    6391
 k-point   2 :   0.1429 0.0000 0.0000  plane waves:    6401
 k-point   3 :   0.2857 0.0000 0.0000  plane waves:    6408
 k-point   4 :   0.4286 0.0000 0.0000  plane waves:    6417
 k-point   5 :   0.1429 0.1429 0.0000  plane waves:    6397
 k-point   6 :   0.2857 0.1429 0.0000  plane waves:    6424
 k-point   7 :   0.4286 0.1429 0.0000  plane waves:    6424
 k-point   8 :  -0.4286 0.1429 0.0000  plane waves:    6430
 k-point   9 :  -0.2857 0.1429 0.0000  plane waves:    6418
 k-point  10 :  -0.1429 0.1429 0.0000  plane waves:    6404
 k-point  11 :   0.2857 0.2857 0.0000  plane waves:    6417
 k-point  12 :   0.4286 0.2857 0.0000  plane waves:    6430
 k-point  13 :  -0.4286 0.2857 0.0000  plane waves:    6417
 k-point  14 :  -0.2857 0.2857 0.0000  plane waves:    6418
 k-point  15 :   0.4286 0.4286 0.0000  plane waves:    6431
 k-point  16 :  -0.4286 0.4286 0.0000  plane waves:    6410
 k-point  17 :  -0.0000-0.0000 0.1250  plane waves:    6408
 k-point  18 :   0.1429 0.0000 0.1250  plane waves:    6412
 k-point  19 :   0.2857-0.0000 0.1250  plane waves:    6426
 k-point  20 :   0.4286 0.0000 0.1250  plane waves:    6421
 k-point  21 :  -0.4286-0.0000 0.1250  plane waves:    6424
 k-point  22 :  -0.2857 0.0000 0.1250  plane waves:    6404
 k-point  23 :  -0.1429 0.0000 0.1250  plane waves:    6411
 k-point  24 :   0.1429 0.1429 0.1250  plane waves:    6418
 k-point  25 :   0.2857 0.1429 0.1250  plane waves:    6432
 k-point  26 :   0.4286 0.1429 0.1250  plane waves:    6442
 k-point  27 :  -0.4286 0.1429 0.1250  plane waves:    6419
 k-point  28 :  -0.2857 0.1429 0.1250  plane waves:    6414
 k-point  29 :  -0.1429 0.1429 0.1250  plane waves:    6430
 k-point  30 :   0.2857 0.2857 0.1250  plane waves:    6430
 k-point  31 :   0.4286 0.2857 0.1250  plane waves:    6421
 k-point  32 :  -0.4286 0.2857 0.1250  plane waves:    6419
 k-point  33 :  -0.2857 0.2857 0.1250  plane waves:    6413
 k-point  34 :  -0.1429 0.2857 0.1250  plane waves:    6425
 k-point  35 :   0.4286 0.4286 0.1250  plane waves:    6425
 k-point  36 :  -0.4286 0.4286 0.1250  plane waves:    6437
 k-point  37 :  -0.2857 0.4286 0.1250  plane waves:    6444
 k-point  38 :  -0.1429 0.4286 0.1250  plane waves:    6432
 k-point  39 :  -0.4286-0.4286 0.1250  plane waves:    6448
 k-point  40 :  -0.2857-0.4286 0.1250  plane waves:    6437
 k-point  41 :  -0.1429-0.4286 0.1250  plane waves:    6426
 k-point  42 :  -0.2857-0.2857 0.1250  plane waves:    6422
 k-point  43 :  -0.1429-0.2857 0.1250  plane waves:    6417
 k-point  44 :  -0.1429-0.1429 0.1250  plane waves:    6404
 k-point  45 :  -0.0000-0.0000 0.2500  plane waves:    6428
 k-point  46 :   0.1429 0.0000 0.2500  plane waves:    6420
 k-point  47 :   0.2857-0.0000 0.2500  plane waves:    6435
 k-point  48 :   0.4286 0.0000 0.2500  plane waves:    6424
 k-point  49 :  -0.4286 0.0000 0.2500  plane waves:    6420
 k-point  50 :  -0.2857 0.0000 0.2500  plane waves:    6412
 k-point  51 :  -0.1429 0.0000 0.2500  plane waves:    6408
 k-point  52 :   0.1429 0.1429 0.2500  plane waves:    6423
 k-point  53 :   0.2857 0.1429 0.2500  plane waves:    6431
 k-point  54 :   0.4286 0.1429 0.2500  plane waves:    6443
 k-point  55 :  -0.4286 0.1429 0.2500  plane waves:    6427
 k-point  56 :  -0.2857 0.1429 0.2500  plane waves:    6428
 k-point  57 :  -0.1429 0.1429 0.2500  plane waves:    6419
 k-point  58 :   0.2857 0.2857 0.2500  plane waves:    6434
 k-point  59 :   0.4286 0.2857 0.2500  plane waves:    6432
 k-point  60 :  -0.4286 0.2857 0.2500  plane waves:    6443
[...]
 k-point 102 :   0.1429 0.0000 0.5000  plane waves:    6423
 k-point 103 :   0.2857 0.0000 0.5000  plane waves:    6422
 k-point 104 :   0.4286 0.0000 0.5000  plane waves:    6430
 k-point 105 :   0.1429 0.1429 0.5000  plane waves:    6440
 k-point 106 :   0.2857 0.1429 0.5000  plane waves:    6433
 k-point 107 :   0.4286 0.1429 0.5000  plane waves:    6423
 k-point 108 :  -0.4286 0.1429 0.5000  plane waves:    6441
 k-point 109 :  -0.2857 0.1429 0.5000  plane waves:    6429
 k-point 110 :  -0.1429 0.1429 0.5000  plane waves:    6432
 k-point 111 :   0.2857 0.2857 0.5000  plane waves:    6430
 k-point 112 :   0.4286 0.2857 0.5000  plane waves:    6425
 k-point 113 :  -0.4286 0.2857 0.5000  plane waves:    6440
 k-point 114 :  -0.2857 0.2857 0.5000  plane waves:    6418
 k-point 115 :   0.4286 0.4286 0.5000  plane waves:    6431
 k-point 116 :  -0.4286 0.4286 0.5000  plane waves:    6440

 maximum and minimum number of plane-waves per node :      3242     3190

 maximum number of plane-waves:      6453
 maximum index in each direction:
   IXMAX=   13   IYMAX=   13   IZMAX=   13
   IXMIN=  -13   IYMIN=  -13   IZMIN=  -13

 parallel 3D FFT for wavefunctions:
    minimum data exchange during FFTs selected (reduces bandwidth)
 parallel 3D FFT for charge:
    minimum data exchange during FFTs selected (reduces bandwidth)

 Broyden mixing: mesh for mixing (old mesh)
   NGX = 25   NGY = 25   NGZ = 25
  (NGX  =108   NGY  =108   NGZ  =108)
  gives a total of  15625 points

 initial charge density was supplied:
 charge density of overlapping atoms calculated
 number of electron     128.0000000 magnetization
 keeping initial charge density in first step

 Maximum index for augmentation-charges        23106 (set IRDMAX)

 First call to EWALD:  gamma=   0.307
 Maximum number of real-space cells 3x 3x 3
 Maximum number of reciprocal cells 3x 3x 3

--------------------------------------- Iteration      1(   1)  ---------------------------------------

 eigenvalue-minimisations  : 18960
 total energy-change (2. order) : 0.1350823E+04  (-0.8532023E+04)
 number of electron     128.0000000 magnetization
 augmentation part      128.0000000 magnetization

 Free energy of the ion-electron system (eV)
  alpha Z        PSCENC =       630.60386702
  Ewald energy   TEWEN  =    -10364.56464904
  -Hartree energ DENC   =     -2503.86321018
  -exchange      EXHF   =         0.00000000
  -V(xc)+E(xc)   XCENC  =       478.39276565
  PAW double counting   =      9750.04252379    -9644.57956626
  entropy T*S    EENTRO =        -0.00074413
  eigenvalues    EBANDS =       721.88575338
  atomic energy  EATOM  =     12282.90600403
  free energy    TOTEN  =      1350.82274424 eV

  energy without entropy =     1350.82348837  energy(sigma->0) =     1350.82311631

[...]

 eigenvalue-minimisations  : 20538
 total energy-change (2. order) :-0.1497484E+04  (-0.1462442E+04)
 number of electron     128.0000000 magnetization
 augmentation part      128.0000000 magnetization

[...]

 eigenvalue-minimisations  :     0
 total energy-change (2. order) : 0.2537703E+03  (-0.1257254E+03)
 number of electron     128.0000001 magnetization
 augmentation part       14.0110119 magnetization

[...]

--------------------------------------- Iteration      1(  36)  ---------------------------------------

 eigenvalue-minimisations  :     0
 total energy-change (2. order) :-0.9331416E-09  (-0.9533334E-09)
 number of electron     128.0000001 magnetization
 augmentation part       12.6943959 magnetization

 Free energy of the ion-electron system (eV)
  alpha Z        PSCENC =       630.60386702
  Ewald energy   TEWEN  =    -10364.56464904
  -Hartree energ DENC   =     -2433.38100198
  -exchange      EXHF   =         0.00000000
  -V(xc)+E(xc)   XCENC  =       498.79547183
  PAW double counting   =     26572.52235649   -26486.05523119
  entropy T*S    EENTRO =        -0.00204115
  eigenvalues    EBANDS =      -832.15155217
  atomic energy  EATOM  =     12282.90600403
  free energy    TOTEN  =      -131.32677619 eV

  energy without entropy =     -131.32473504  energy(sigma->0) =     -131.32575561

  average scaling for gradient   0.8070

 average (electrostatic) potential at core
  the test charge radii are     0.7672  1.0818  0.9892
  (the norm of the test charge is              1.0000)
       1 -24.2755       2 -24.2678       3 -24.2678       4 -24.2705       5 -73.0221
       6 -74.0857       7 -73.0258       8 -73.0258       9 -73.0221      10 -74.0857
      11 -80.0702      12 -80.0743      13 -80.0734      14 -80.0734      15 -80.0743
      16 -80.0702      17 -80.0702      18 -80.0702

 E-fermi :  13.4426     XC(G=0): -13.8056     alpha+bet :-22.0012

 Fermi energy:        13.4426373787

 k-point     1 :       0.0000    0.0000    0.0000
  band No.  band energies     occupation
      1     -50.1773      2.00000
      2     -50.1769      2.00000
      3     -49.3136      2.00000
      4     -49.2980      2.00000
      5     -49.2942      2.00000
      6     -49.2818      2.00000
      7     -23.7975      2.00000
      8     -23.7948      2.00000
      9     -23.7654      2.00000
     10     -23.7628      2.00000
     11     -23.5838      2.00000
     12     -23.5309      2.00000
     13     -23.2620      2.00000
     14     -23.2502      2.00000
     15     -23.2465      2.00000
     16     -23.2433      2.00000
     17     -23.2128      2.00000
     18     -23.0672      2.00000
     19     -23.0633      2.00000
     20     -22.9577      2.00000
     21     -22.5872      2.00000
     22     -22.4832      2.00000
     23     -22.4806      2.00000
     24     -22.3994      2.00000
     25      -2.7481      2.00000
     26       0.0852      2.00000
     27       0.8088      2.00000
     28       0.8131      2.00000
     29       0.8272      2.00000
     30       3.0233      2.00000
     31       3.4755      2.00000
     32       3.4788      2.00000
     33       4.1535      2.00000
     34       4.1547      2.00000
     35       4.7646      2.00000
     36       4.9810      2.00000
     37       5.6607      2.00000
     38       6.1064      2.00000
     39       6.3416      2.00000
     40       7.4337      2.00000
     41       7.4341      2.00000
     42       7.5784      2.00000
     43       7.6741      2.00000
     44       7.8551      2.00000
     45       7.8558      2.00000
     46       8.5787      2.00000
     47       9.2237      2.00000
     48       9.2247      2.00000
     49       9.6992      2.00000
     50       9.9460      2.00000
     51      10.0067      2.00000
     52      10.0374      2.00000
     53      10.1826      2.00000
     54      10.1839      2.00000
     55      10.2688      2.00000
     56      10.9815      2.00000
     57      11.2458      2.00000
     58      11.2467      2.00000
     59      11.5730      2.00000
     60      12.1815      2.00000
[...]
     64      12.7586      2.00000
     65      13.4017      1.99621
     66      13.5574      0.00000
     67      13.5578      0.00000
     68      14.0038      0.00000
     69      14.9061      0.00000
     70      15.1845      0.00000
     71      15.1913      0.00000
     72      15.5588      0.00000
     73      15.7907      0.00000
     74      15.7937      0.00000
     75      16.0522      0.00000
     76      16.1004      0.00000
     77      16.2973      0.00000
     78      16.3189      0.00000

[...]

 k-point   116 :      -0.4286    0.4286    0.5000
  band No.  band energies     occupation
      1     -50.1769      2.00000
      2     -50.1768      2.00000
      3     -49.3137      2.00000
      4     -49.2980      2.00000
      5     -49.2944      2.00000
      6     -49.2822      2.00000
      7     -23.7621      2.00000
      8     -23.7612      2.00000
      9     -23.7594      2.00000
     10     -23.7562      2.00000
     11     -23.5136      2.00000
     12     -23.5093      2.00000
     13     -23.3237      2.00000
     14     -23.2859      2.00000
     15     -23.2846      2.00000
     16     -23.2619      2.00000
     17     -23.2105      2.00000
     18     -23.0661      2.00000
     19     -23.0638      2.00000
     20     -22.9577      2.00000
     21     -22.6098      2.00000
     22     -22.4899      2.00000
     23     -22.4876      2.00000
     24     -22.4022      2.00000
     25      -1.9458      2.00000
     26      -0.2354      2.00000
     27      -0.0132      2.00000
     28       0.5574      2.00000
     29       1.2833      2.00000
     30       2.0789      2.00000
     31       3.4300      2.00000
     32       3.4759      2.00000
     33       3.4910      2.00000
     34       5.1502      2.00000
     35       5.5234      2.00000
     36       5.6156      2.00000
     37       5.7661      2.00000
     38       6.1376      2.00000
     39       6.6005      2.00000
     40       6.6484      2.00000
     41       7.3839      2.00000
     42       7.4866      2.00000
     43       7.7906      2.00000
     44       8.3289      2.00000
     45       8.5748      2.00000
     46       8.7130      2.00000
     47       8.7517      2.00000
     48       8.9584      2.00000
     49       8.9766      2.00000
     50       9.0041      2.00000
     51       9.8999      2.00000
     52      10.1216      2.00000
     53      10.1867      2.00000
     54      10.4546      2.00000
     55      10.8865      2.00000
     56      11.0129      2.00000
     57      11.0419      2.00000
     58      12.2234      2.00000
     59      12.2754      2.00000
     60      12.3723      2.00000
[...]
     64      13.2263      2.00000
     65      13.2865      2.00000
     66      13.4745      0.02441
     67      14.0746      0.00000
     68      14.1405      0.00000
     69      14.1527      0.00000
     70      14.6081      0.00000
     71      14.6933      0.00000
     72      15.0038      0.00000
     73      15.3036      0.00000
     74      15.4218      0.00000
     75      15.4725      0.00000
     76      15.5400      0.00000
     77      16.1175      0.00000
     78      16.6448      0.00000

 soft charge-density along one line, spin component           1
         0         1         2         3         4         5         6         7         8         9
 total charge-density along one line

------------------------ aborting loop because EDIFF is reached ----------------------------------------

  FREE ENERGIE OF THE ION-ELECTRON SYSTEM (eV)
  free  energy   TOTEN  =      -131.32677619 eV

  energy  without entropy=     -131.32473504  energy(sigma->0) =     -131.32575561

 writing wavefunctions