 vasp.6.2.0 18Jan21 (build Jan 05 2022 15:41:44) complex

 executed on             LinuxIFC date 2025.05.07  20:11:15

 INCAR:
   SYSTEM = routine with relax: pwdword
   ICHARG = 2
   NPAR = 6
   KPAR = 2
   NCORE = 2
   ADDGRID = T
   PREC = Acc
   ENCUT = 600
   METAGGA = R2SCAN
   LASPH = .TRUE.
   LMIXTAU = .FALSE.
   ALGO = A
   EDIFF = 1E-9
   NELM = 100
   NELMIN = 6
   IALGO = 38
   LREAL = F
   NSW = 0
   ISIF = -1
   ISMEAR = 0
   SIGMA = 0.02
   SYMPREC = 1E-4

 POTCAR:    PAW_PBE B 06Sep2000
 POTCAR:    PAW_PBE Mo_sv 02Feb2006
 POTCAR:    PAW_PBE Si 05Jan2001
|           W    W    AA    RRRRR   N    N  II  N    N   GGGG   !!!           |
|           W    W   A  A   R    R  NN   N  II  NN   N  G    G  !!!           |
|           W    W  A    A  R    R  N N  N  II  N N  N  G       !!!           |
|           W WW W  AAAAAA  RRRRR   N  N N  II  N  N N  G  GGG   !            |
|           WW  WW  A    A  R   R   N   NN  II  N   NN  G    G                |
|           W    W  A    A  R    R  N    N  II  N    N   GGGG   !!!           |
|     For optimal performance we recommend to set                             |
|       NCORE = 2 up to number-of-cores-per-socket                            |
|     This setting can greatly improve the performance of VASP for DFT.       |
|     The default, NCORE=1 might be grossly inefficient on modern             |
|     multi-core architectures or massively parallel machines. Do your        |
|     Unfortunately you need to use the default for GW and RPA                |
|     calculations (for HF NCORE is supported but not extensively tested      |
|     yet).                                                                   |

 POTCAR:    PAW_PBE B 06Sep2000
   VRHFIN =B: s2p1

   TITEL  = PAW_PBE B 06Sep2000
   POMASS =   10.811; ZVAL   =    3.000    mass and valenz
   ENMAX  =  318.614; ENMIN  =  238.960 eV

 POTCAR:    PAW_PBE Mo_sv 02Feb2006
   VRHFIN =Mo: 4p5s4d

   TITEL  = PAW_PBE Mo_sv 02Feb2006
   POMASS =   95.940; ZVAL   =   14.000    mass and valenz
   ENMAX  =  242.676; ENMIN  =  182.007 eV

 POTCAR:    PAW_PBE Si 05Jan2001
   VRHFIN =Si: s2p2

   TITEL  = PAW_PBE Si 05Jan2001
   POMASS =   28.085; ZVAL   =    4.000    mass and valenz
   ENMAX  =  245.345; ENMIN  =  184.009 eV

  PAW_PBE B 06Sep2000                   :
  PAW_PBE Mo_sv 02Feb2006               :
  PAW_PBE Si 05Jan2001                  :

 POSCAR: EA211
  positions in direct lattice

 METAGGA = R2SCA    LMAXTAU =  6    LMIXTAU =  F

 ion  position               nearest neighbor table
   1  0.344  0.156  0.500-   9 1.73   7 2.26   6 2.26   5 2.41  11 2.41
   2  0.656  0.844  0.500-  10 1.73   6 2.26   7 2.26   5 2.41  11 2.41
   3  0.156  0.656  0.811-   7 1.73   9 2.26  10 2.26  12 2.41   8 2.41
   4  0.844  0.344  0.189-   6 1.73   9 2.26  10 2.26  12 2.41   8 2.41
   5  0.000  0.000  0.500-   9 2.37  10 2.37   1 2.41   2 2.41  13 2.46  14 2.46   8 3.48  12 3.48
                             8 3.48  12 3.48
   6  0.669  0.169  0.838-   4 1.73   2 2.26   1 2.26   8 2.37  12 2.37   7 3.33
   7  0.331  0.831  0.162-   3 1.73   1 2.26   2 2.26   8 2.37  12 2.37   6 3.33
   8  0.000  0.500  0.000-   6 2.37   7 2.37   3 2.41   4 2.41  13 2.46  14 2.46   5 3.48  11 3.48
                             5 3.48  11 3.48
   9  0.169  0.331  0.500-   1 1.73   3 2.26   4 2.26   5 2.37  11 2.37  10 3.33
  10  0.831  0.669  0.500-   2 1.73   3 2.26   4 2.26   5 2.37  11 2.37   9 3.33
  11  0.500  0.500  0.500-   9 2.37  10 2.37   1 2.41   2 2.41  14 2.46  13 2.46   8 3.48  12 3.48
                            12 3.48   8 3.48
  12  0.500  0.000  0.000-   6 2.37   7 2.37   3 2.41   4 2.41  13 2.46  14 2.46   5 3.48  11 3.48
                            11 3.48   5 3.48
  13  0.250  0.250  0.000-  11 2.46   5 2.46  12 2.46   8 2.46
  14  0.750  0.750  0.000-   5 2.46  11 2.46  12 2.46   8 2.46

  LATTYP: Found a body centered tetragonal cell.
 ALAT       =     6.9622399552
 C/A-ratio  =     1.2803370826

  Lattice vectors:

 A1 = (   5.9290357120,   0.0000000000,  -2.9913355438)
 A2 = (  -2.2465404265,   5.4869409133,  -2.9913355438)
 A3 = (   0.0000000000,   0.0000000000,   6.6409000000)

Analysis of symmetry for initial positions (statically):
 Subroutine PRICEL returns:
 Original cell was already a primitive cell.

 Routine SETGRP: Setting up the symmetry group for a
 body centered tetragonal supercell.

 Subroutine GETGRP returns: Found 16 space group operations
 (whereof  8 operations were pure point group operations)
 out of a pool of 16 trial point group operations.

The static configuration has the point symmetry C_4h.
 The point group associated with its full space group is D_4h.

Analysis of symmetry for dynamics (positions and initial velocities):
 Subroutine PRICEL returns:
 Original cell was already a primitive cell.

 Routine SETGRP: Setting up the symmetry group for a
 body centered tetragonal supercell.

 Subroutine GETGRP returns: Found 16 space group operations
 (whereof  8 operations were pure point group operations)
 out of a pool of 16 trial point group operations.

The dynamic configuration has the point symmetry C_4h.
 The point group associated with its full space group is D_4h.

 Subroutine INISYM returns: Found 16 space group operations
 (whereof  8 operations are pure point group operations),
 and found     1 'primitive' translations

                                     Primitive cell

  volume of cell :     216.0435

  direct lattice vectors                    reciprocal lattice vectors
     5.929035712  0.000000000 -2.991335544     0.168661490  0.069055757  0.000000000
    -2.246540426  5.486940913 -2.991335544     0.000000000  0.182250915  0.000000000
     0.000000000  0.000000000  6.640900000     0.075972099  0.113198900  0.150581999

  length of vectors
     6.640900000  6.640900000  6.640900000     0.182250915  0.182250915  0.203127274

  position of ions in fractional coordinates (direct lattice)
     0.344280000  0.155720000  0.500000000
     0.655720000  0.844280000  0.500000000
     0.155720000  0.655720000  0.811440000
     0.844280000  0.344280000  0.188560000
     0.000000000  0.000000000  0.500000000
     0.668850000  0.168850000  0.837700000
     0.331150000  0.831150000  0.162300000
     0.000000000  0.500000000  0.000000000
     0.168850000  0.331150000  0.500000000
     0.831150000  0.668850000  0.500000000
     0.500000000  0.500000000  0.500000000
     0.500000000  0.000000000  0.000000000
     0.250000000  0.250000000  0.000000000
     0.750000000  0.750000000  0.000000000

  ion indices of the primitive-cell ions
   primitive index   ion index
                 1           1
                 2           2
                 3           3
                 4           4
                 5           5
                 6           6
                 7           7
                 8           8
                 9           9
                10          10
                11          11
                12          12
                13          13
                14          14

 KPOINTS: EA

Automatic generation of k-mesh.
 Grid dimensions read from file:
 generate k-points for:    7    7    7

 Generating k-lattice:

  Cartesian coordinates                     Fractional coordinates (reciprocal lattice)
     0.024094499  0.009865108  0.000000000     0.142857143 -0.000000000  0.000000000
     0.000000000  0.026035845  0.000000000     0.000000000  0.142857143  0.000000000
     0.010853157  0.016171271  0.021511714    -0.000000000  0.000000000  0.142857143

  Length of vectors
     0.026035845  0.026035845  0.029018182

  Shift w.r.t. Gamma in fractional coordinates (k-lattice)
     0.000000000  0.000000000  0.000000000

 Subroutine IBZKPT returns following result:

 Found     40 irreducible k-points:

 Following reciprocal coordinates:
            Coordinates               Weight
  0.000000  0.000000  0.000000      1.000000
  0.142857 -0.000000  0.000000      8.000000
  0.285714 -0.000000  0.000000      8.000000
  0.428571  0.000000  0.000000      8.000000
  0.142857  0.142857  0.000000      8.000000
  0.285714  0.142857  0.000000     16.000000
  0.428571  0.142857  0.000000     16.000000
 -0.428571  0.142857  0.000000     16.000000
 -0.285714  0.142857  0.000000     16.000000
 -0.142857  0.142857  0.000000      4.000000
  0.285714  0.285714  0.000000      8.000000
  0.428571  0.285714  0.000000     16.000000
 -0.428571  0.285714  0.000000     16.000000
 -0.285714  0.285714  0.000000      4.000000
  0.428571  0.428571  0.000000      8.000000
 -0.428571  0.428571  0.000000      4.000000
  0.142857  0.142857  0.142857      8.000000
  0.285714  0.142857  0.142857     16.000000
 -0.142857  0.142857  0.142857      4.000000
  0.285714  0.285714  0.142857      8.000000
  0.428571  0.285714  0.142857      8.000000
 -0.285714  0.285714  0.142857      8.000000
 -0.142857  0.285714  0.142857      8.000000
 -0.428571  0.428571  0.142857      8.000000
 -0.285714  0.428571  0.142857     16.000000
 -0.142857  0.428571  0.142857      8.000000
 -0.428571 -0.428571  0.142857      8.000000
 -0.285714 -0.428571  0.142857     16.000000
 -0.142857 -0.428571  0.142857      8.000000
 -0.285714 -0.285714  0.142857      8.000000
 -0.142857 -0.285714  0.142857      8.000000
 -0.142857 -0.142857  0.142857      2.000000
 -0.285714  0.285714  0.285714      4.000000
 -0.428571  0.428571  0.285714      8.000000
 -0.285714  0.428571  0.285714      8.000000
 -0.428571 -0.428571  0.285714      8.000000
 -0.285714 -0.428571  0.285714      8.000000
 -0.285714 -0.285714  0.285714      2.000000
 -0.428571  0.428571  0.428571      4.000000
 -0.428571 -0.428571  0.428571      2.000000

 Following cartesian coordinates:
            Coordinates               Weight
  0.000000  0.000000  0.000000      1.000000
  0.024094  0.009865  0.000000      8.000000
  0.048189  0.019730  0.000000      8.000000
  0.072283  0.029595  0.000000      8.000000
  0.024094  0.035901  0.000000      8.000000
  0.048189  0.045766  0.000000     16.000000
  0.072283  0.055631  0.000000     16.000000
 -0.072283 -0.003559  0.000000     16.000000
 -0.048189  0.006306  0.000000     16.000000
 -0.024094  0.016171  0.000000      4.000000
  0.048189  0.071802  0.000000      8.000000
  0.072283  0.081667  0.000000     16.000000
 -0.072283  0.022476  0.000000     16.000000
 -0.048189  0.032341  0.000000      4.000000
  0.072283  0.107703  0.000000      8.000000
 -0.072283  0.048512  0.000000      4.000000
  0.034948  0.052072  0.021512      8.000000
  0.059042  0.061937  0.021512     16.000000
 -0.013241  0.032342  0.021512      4.000000
  0.059042  0.087973  0.021512      8.000000
  0.083137  0.097838  0.021512      8.000000
 -0.037336  0.048513  0.021512      8.000000
 -0.013241  0.058378  0.021512      8.000000
 -0.061430  0.064683  0.021512      8.000000
 -0.037336  0.074549  0.021512     16.000000
 -0.013241  0.084414  0.021512      8.000000
 -0.061430 -0.091532  0.021512      8.000000
 -0.037336 -0.081666  0.021512     16.000000
 -0.013241 -0.071801  0.021512      8.000000
 -0.037336 -0.055631  0.021512      8.000000
 -0.013241 -0.045766  0.021512      8.000000
 -0.013241 -0.019730  0.021512      2.000000
[...]
  -0.04818900  0.00630563  0.00000000       0.047
  -0.02409450  0.01617074  0.00000000       0.012
   0.04818900  0.07180191  0.00000000       0.023
   0.07228350  0.08166701  0.00000000       0.047
  -0.07228350  0.02247637  0.00000000       0.047
  -0.04818900  0.03234147  0.00000000       0.012
   0.07228350  0.10770286  0.00000000       0.023
  -0.07228350  0.04851221  0.00000000       0.012
   0.03494766  0.05207222  0.02151171       0.023
   0.05904215  0.06193733  0.02151171       0.047
  -0.01324134  0.03234201  0.02151171       0.012
   0.05904215  0.08797318  0.02151171       0.023
   0.08313665  0.09783829  0.02151171       0.023
  -0.03733584  0.04851275  0.02151171       0.023
  -0.01324134  0.05837785  0.02151171       0.023
  -0.06143034  0.06468348  0.02151171       0.023
  -0.03733584  0.07454859  0.02151171       0.047
  -0.01324134  0.08441370  0.02151171       0.023
  -0.06143034 -0.09153159  0.02151171       0.023
  -0.03733584 -0.08166648  0.02151171       0.047
  -0.01324134 -0.07180137  0.02151171       0.023
  -0.03733584 -0.05563063  0.02151171       0.023
  -0.01324134 -0.04576553  0.02151171       0.023
  -0.01324134 -0.01972968  0.02151171       0.006
  -0.02648268  0.06468402  0.04302343       0.012
  -0.05057718  0.08085475  0.04302343       0.023
  -0.02648268  0.09071986  0.04302343       0.023
  -0.05057718 -0.07536032  0.04302343       0.023
  -0.02648268 -0.06549521  0.04302343       0.023
  -0.02648268 -0.03945936  0.04302343       0.006
  -0.03972402  0.09702603  0.06453514       0.012
  -0.03972402 -0.05918904  0.06453514       0.006

 k-points in reciprocal lattice and weights: EA
   0.00000000  0.00000000  0.00000000       0.003
   0.14285714 -0.00000000  0.00000000       0.023
   0.28571429 -0.00000000  0.00000000       0.023
   0.42857143  0.00000000  0.00000000       0.023
   0.14285714  0.14285714  0.00000000       0.023
   0.28571429  0.14285714  0.00000000       0.047
   0.42857143  0.14285714  0.00000000       0.047
  -0.42857143  0.14285714  0.00000000       0.047
  -0.28571429  0.14285714  0.00000000       0.047
  -0.14285714  0.14285714  0.00000000       0.012
   0.28571429  0.28571429  0.00000000       0.023
   0.42857143  0.28571429  0.00000000       0.047
  -0.42857143  0.28571429  0.00000000       0.047
  -0.28571429  0.28571429  0.00000000       0.012
   0.42857143  0.42857143  0.00000000       0.023
  -0.42857143  0.42857143  0.00000000       0.012
   0.14285714  0.14285714  0.14285714       0.023
   0.28571429  0.14285714  0.14285714       0.047
  -0.14285714  0.14285714  0.14285714       0.012
   0.28571429  0.28571429  0.14285714       0.023
   0.42857143  0.28571429  0.14285714       0.023
  -0.28571429  0.28571429  0.14285714       0.023
  -0.14285714  0.28571429  0.14285714       0.023
  -0.42857143  0.42857143  0.14285714       0.023
  -0.28571429  0.42857143  0.14285714       0.047
  -0.14285714  0.42857143  0.14285714       0.023
  -0.42857143 -0.42857143  0.14285714       0.023
  -0.28571429 -0.42857143  0.14285714       0.047
  -0.14285714 -0.42857143  0.14285714       0.023
  -0.28571429 -0.28571429  0.14285714       0.023
  -0.14285714 -0.28571429  0.14285714       0.023
  -0.14285714 -0.14285714  0.14285714       0.006
  -0.28571429  0.28571429  0.28571429       0.012
  -0.42857143  0.42857143  0.28571429       0.023
  -0.28571429  0.42857143  0.28571429       0.023
  -0.42857143 -0.42857143  0.28571429       0.023
  -0.28571429 -0.42857143  0.28571429       0.023
  -0.28571429 -0.28571429  0.28571429       0.006
  -0.42857143  0.42857143  0.42857143       0.012
  -0.42857143 -0.42857143  0.42857143       0.006

 position of ions in fractional coordinates (direct lattice)
   0.34428000  0.15572000  0.50000000
   0.65572000  0.84428000  0.50000000
   0.15572000  0.65572000  0.81144000
   0.84428000  0.34428000  0.18856000
   0.00000000  0.00000000  0.50000000
   0.66885000  0.16885000  0.83770000
   0.33115000  0.83115000  0.16230000
   0.00000000  0.50000000  0.00000000
   0.16885000  0.33115000  0.50000000
   0.83115000  0.66885000  0.50000000
   0.50000000  0.50000000  0.50000000
   0.50000000  0.00000000  0.00000000
   0.25000000  0.25000000  0.00000000
   0.75000000  0.75000000  0.00000000

 position of ions in cartesian coordinates  (Angst):
   1.69141714  0.85442644  1.82478223
   1.99107815  4.63251447 -1.16655332
  -0.54983205  3.59789690  2.96140258
   4.23232733  1.88904402 -2.30317367
   0.00000000  0.00000000  3.32045000
   3.58630718  0.92646997  3.05724014
   0.09618810  4.56047094 -2.39901123
  -1.12327021  2.74347046 -1.49566777
   0.25717582  1.81700048  1.82478223
   3.42531947  3.66994043 -1.16655332
   1.84124764  2.74347046  0.32911446
   2.96451786  0.00000000 -1.49566777
   0.92062382  1.37173523 -1.49566777
   2.76187146  4.11520568 -4.48700332

 k-point   1 :   0.0000 0.0000 0.0000  plane waves:    7221
 k-point   2 :   0.1429-0.0000 0.0000  plane waves:    7216
 k-point   3 :   0.2857-0.0000 0.0000  plane waves:    7207
 k-point   4 :   0.4286 0.0000 0.0000  plane waves:    7214
 k-point   5 :   0.1429 0.1429 0.0000  plane waves:    7188
 k-point   6 :   0.2857 0.1429 0.0000  plane waves:    7213
 k-point   7 :   0.4286 0.1429 0.0000  plane waves:    7218
 k-point   8 :  -0.4286 0.1429 0.0000  plane waves:    7215
 k-point   9 :  -0.2857 0.1429 0.0000  plane waves:    7208
 k-point  10 :  -0.1429 0.1429 0.0000  plane waves:    7219
 k-point  11 :   0.2857 0.2857 0.0000  plane waves:    7197
 k-point  12 :   0.4286 0.2857 0.0000  plane waves:    7213
 k-point  13 :  -0.4286 0.2857 0.0000  plane waves:    7216
 k-point  14 :  -0.2857 0.2857 0.0000  plane waves:    7206
 k-point  15 :   0.4286 0.4286 0.0000  plane waves:    7223
 k-point  16 :  -0.4286 0.4286 0.0000  plane waves:    7206
 k-point  17 :   0.1429 0.1429 0.1429  plane waves:    7220
 k-point  18 :   0.2857 0.1429 0.1429  plane waves:    7219
 k-point  19 :  -0.1429 0.1429 0.1429  plane waves:    7230
 k-point  20 :   0.2857 0.2857 0.1429  plane waves:    7221
 k-point  21 :   0.4286 0.2857 0.1429  plane waves:    7215
 k-point  22 :  -0.2857 0.2857 0.1429  plane waves:    7215
 k-point  23 :  -0.1429 0.2857 0.1429  plane waves:    7197
 k-point  24 :  -0.4286 0.4286 0.1429  plane waves:    7210
 k-point  25 :  -0.2857 0.4286 0.1429  plane waves:    7188
 k-point  26 :  -0.1429 0.4286 0.1429  plane waves:    7215
 k-point  27 :  -0.4286-0.4286 0.1429  plane waves:    7230
 k-point  28 :  -0.2857-0.4286 0.1429  plane waves:    7208
 k-point  29 :  -0.1429-0.4286 0.1429  plane waves:    7202
 k-point  30 :  -0.2857-0.2857 0.1429  plane waves:    7204
 k-point  31 :  -0.1429-0.2857 0.1429  plane waves:    7196
 k-point  32 :  -0.1429-0.1429 0.1429  plane waves:    7182
 k-point  33 :  -0.2857 0.2857 0.2857  plane waves:    7178
 k-point  34 :  -0.4286 0.4286 0.2857  plane waves:    7212
 k-point  35 :  -0.2857 0.4286 0.2857  plane waves:    7211
 k-point  36 :  -0.4286-0.4286 0.2857  plane waves:    7214
 k-point  37 :  -0.2857-0.4286 0.2857  plane waves:    7208
 k-point  38 :  -0.2857-0.2857 0.2857  plane waves:    7212
 k-point  39 :  -0.4286 0.4286 0.4286  plane waves:    7196
 k-point  40 :  -0.4286-0.4286 0.4286  plane waves:    7178

 maximum and minimum number of plane-waves per node :      3631     3581

 maximum number of plane-waves:      7230
 maximum index in each direction:
   IXMAX=   13   IYMAX=   13   IZMAX=   13
   IXMIN=  -13   IYMIN=  -13   IZMIN=  -13

 parallel 3D FFT for wavefunctions:
    minimum data exchange during FFTs selected (reduces bandwidth)
 parallel 3D FFT for charge:
    minimum data exchange during FFTs selected (reduces bandwidth)

 Broyden mixing: mesh for mixing (old mesh)
   NGX = 27   NGY = 27   NGZ = 27
  (NGX  =108   NGY  =108   NGZ  =108)
  gives a total of  19683 points

 initial charge density was supplied:
 charge density of overlapping atoms calculated
 number of electron     132.0000000 magnetization
 keeping initial charge density in first step

 Maximum index for augmentation-charges        20831 (set IRDMAX)

 First call to EWALD:  gamma=   0.295
 Maximum number of real-space cells 3x 3x 3
 Maximum number of reciprocal cells 3x 3x 3

--------------------------------------- Iteration      1(   1)  ---------------------------------------

 eigenvalue-minimisations  :  6936
 total energy-change (2. order) : 0.1481941E+04  (-0.9048977E+04)
 number of electron     132.0000000 magnetization
 augmentation part      132.0000000 magnetization

 Free energy of the ion-electron system (eV)
  alpha Z        PSCENC =       709.73838265
  Ewald energy   TEWEN  =    -11499.29620779
  -Hartree energ DENC   =     -3770.97011219
  -exchange      EXHF   =         0.00000000
  -V(xc)+E(xc)   XCENC  =       635.04512803
  PAW double counting   =     12222.79056693   -12176.19405220
  entropy T*S    EENTRO =        -0.00074733
  eigenvalues    EBANDS =       -28.24337042
  atomic energy  EATOM  =     15389.07168825
  free energy    TOTEN  =      1481.94127593 eV

  energy without entropy =     1481.94202326  energy(sigma->0) =     1481.94164959

[...]

 eigenvalue-minimisations  :  7212
 total energy-change (2. order) :-0.1703151E+04  (-0.1656689E+04)
 number of electron     132.0000000 magnetization
 augmentation part      132.0000000 magnetization

[...]

 eigenvalue-minimisations  :     0
 total energy-change (2. order) :-0.1037915E-07  (-0.2825689E-09)
 number of electron     132.0000009 magnetization
 augmentation part       19.2725032 magnetization

[...]

--------------------------------------- Iteration      1(  38)  ---------------------------------------

 eigenvalue-minimisations  :     0
 total energy-change (2. order) : 0.5384209E-09  (-0.1360996E-09)
 number of electron     132.0000009 magnetization
 augmentation part       19.2725024 magnetization

 Free energy of the ion-electron system (eV)
  alpha Z        PSCENC =       709.73838265
  Ewald energy   TEWEN  =    -11499.29620779
  -Hartree energ DENC   =     -3664.34270178
  -exchange      EXHF   =         0.00000000
  -V(xc)+E(xc)   XCENC  =       650.31509500
  PAW double counting   =     17005.90901707   -16981.49452472
  entropy T*S    EENTRO =        -0.00240715
  eigenvalues    EBANDS =     -1845.15291244
  atomic energy  EATOM  =     15389.07168825
  free energy    TOTEN  =      -235.25457091 eV

  energy without entropy =     -235.25216376  energy(sigma->0) =     -235.25336733

  average scaling for gradient   0.7914

 average (electrostatic) potential at core
  the test charge radii are     0.7672  1.0818  0.9892
  (the norm of the test charge is              1.0000)
       1 -24.9323       2 -24.9323       3 -24.9326       4 -24.9326       5 -77.9150
       6 -77.6088       7 -77.6088       8 -77.9150       9 -77.6087      10 -77.6087
      11 -77.9150      12 -77.9149      13 -83.7131      14 -83.7131

 E-fermi :   8.6789     XC(G=0): -12.4528     alpha+bet :-15.8449

 Fermi energy:         8.6789124942

 k-point     1 :       0.0000    0.0000    0.0000
  band No.  band energies     occupation
      1     -54.2351      2.00000
      2     -54.2208      2.00000
      3     -54.0212      2.00000
      4     -54.0212      2.00000
      5     -53.8553      2.00000
      6     -53.8552      2.00000
      7     -53.6405      2.00000
      8     -53.6374      2.00000
      9     -29.0624      2.00000
     10     -29.0377      2.00000
     11     -28.2521      2.00000
     12     -28.2520      2.00000
     13     -27.7369      2.00000
     14     -27.6910      2.00000
     15     -27.5659      2.00000
     16     -27.5658      2.00000
     17     -27.5027      2.00000
     18     -27.5026      2.00000
     19     -27.4928      2.00000
     20     -27.4043      2.00000
     21     -27.3577      2.00000
     22     -27.3417      2.00000
     23     -27.3416      2.00000
     24     -27.3119      2.00000
     25     -27.2408      2.00000
     26     -27.1702      2.00000
     27     -27.0766      2.00000
     28     -27.0766      2.00000
     29     -27.0585      2.00000
     30     -27.0583      2.00000
     31     -26.0214      2.00000
     32     -26.0131      2.00000
     33      -1.5880      2.00000
     34       0.4959      2.00000
     35       1.1996      2.00000
     36       1.7374      2.00000
     37       1.7375      2.00000
     38       1.9606      2.00000
     39       3.1459      2.00000
     40       3.1460      2.00000
     41       3.5285      2.00000
     42       3.6537      2.00000
     43       3.9695      2.00000
     44       4.1230      2.00000
     45       4.1230      2.00000
     46       4.2543      2.00000
     47       4.3956      2.00000
     48       4.4894      2.00000
     49       4.9308      2.00000
     50       4.9308      2.00000
     51       5.6088      2.00000
     52       5.6089      2.00000
     53       6.3295      2.00000
     54       6.4595      2.00000
     55       6.5887      2.00000
     56       7.0281      2.00000
     57       7.0281      2.00000
     58       7.5723      2.00000
     59       7.5723      2.00000
     60       7.6492      2.00000
[...]
     70       9.4691      0.00000
     71       9.5026      0.00000
     72       9.5026      0.00000
     73       9.6635      0.00000
     74       9.9858      0.00000
     75      10.1569      0.00000
     76      10.5965      0.00000
     77      10.8549      0.00000
     78      10.8550      0.00000
     79      10.8583      0.00000
     80      10.8584      0.00000
     81      11.0229      0.00000
     82      11.1187      0.00000
     83      11.4999      0.00000
     84      12.1268      0.00000

[...]

 k-point    40 :      -0.4286   -0.4286    0.4286
  band No.  band energies     occupation
      1     -54.2195      2.00000
      2     -54.2195      2.00000
      3     -54.0490      2.00000
      4     -54.0365      2.00000
      5     -53.8414      2.00000
      6     -53.8360      2.00000
      7     -53.6425      2.00000
      8     -53.6424      2.00000
      9     -29.0173      2.00000
     10     -29.0172      2.00000
     11     -28.3529      2.00000
     12     -28.3212      2.00000
     13     -27.6406      2.00000
     14     -27.6403      2.00000
     15     -27.6379      2.00000
     16     -27.6239      2.00000
     17     -27.6020      2.00000
     18     -27.4759      2.00000
     19     -27.4470      2.00000
     20     -27.4468      2.00000
     21     -27.3294      2.00000
     22     -27.3293      2.00000
     23     -27.3087      2.00000
     24     -27.2446      2.00000
     25     -27.2024      2.00000
     26     -27.2024      2.00000
     27     -27.1015      2.00000
     28     -27.0460      2.00000
     29     -27.0330      2.00000
     30     -27.0144      2.00000
     31     -26.0507      2.00000
     32     -26.0507      2.00000
     33      -0.6686      2.00000
     34       0.0776      2.00000
     35       0.9180      2.00000
     36       0.9339      2.00000
     37       0.9339      2.00000
     38       2.5258      2.00000
     39       2.8918      2.00000
     40       3.6610      2.00000
     41       3.6610      2.00000
     42       3.7181      2.00000
     43       3.7714      2.00000
     44       4.3383      2.00000
     45       4.5222      2.00000
     46       4.6718      2.00000
     47       4.6719      2.00000
     48       4.7556      2.00000
     49       4.7556      2.00000
     50       5.1246      2.00000
     51       5.3008      2.00000
     52       5.3008      2.00000
     53       5.3867      2.00000
     54       5.5468      2.00000
     55       6.8251      2.00000
     56       6.8251      2.00000
     57       7.1408      2.00000
     58       7.5031      2.00000
     59       7.5032      2.00000
     60       7.5400      2.00000
[...]
     70       9.3528      0.00000
     71       9.6249      0.00000
     72       9.8686      0.00000
     73       9.8686      0.00000
     74      10.1757      0.00000
     75      10.2549      0.00000
     76      10.2550      0.00000
     77      10.6445      0.00000
     78      10.6445      0.00000
     79      11.5732      0.00000
     80      11.6783      0.00000
     81      11.7525      0.00000
     82      11.9421      0.00000
     83      12.2413      0.00000
     84      12.4218      0.00000

 soft charge-density along one line, spin component           1
         0         1         2         3         4         5         6         7         8         9
 total charge-density along one line

------------------------ aborting loop because EDIFF is reached ----------------------------------------

  FREE ENERGIE OF THE ION-ELECTRON SYSTEM (eV)
  free  energy   TOTEN  =      -235.25457091 eV

  energy  without entropy=     -235.25216376  energy(sigma->0) =     -235.25336733

 writing wavefunctions