 vasp.6.2.0 18Jan21 (build Jan 05 2022 15:41:44) complex

 executed on             LinuxIFC date 2025.05.07  21:27:45

 INCAR:
   SYSTEM = routine with relax: pwdword
   ICHARG = 2
   NPAR = 6
   KPAR = 2
   NCORE = 2
   ADDGRID = T
   PREC = Acc
   ENCUT = 600
   METAGGA = R2SCAN
   LASPH = .TRUE.
   LMIXTAU = .FALSE.
   ALGO = A
   EDIFF = 1E-9
   NELM = 100
   NELMIN = 6
   IALGO = 38
   LREAL = F
   NSW = 0
   ISIF = -1
   ISMEAR = 0
   SIGMA = 0.02

 POTCAR:    PAW_PBE Mo_sv 02Feb2006
 POTCAR:    PAW_PBE Si 05Jan2001
|           W    W    AA    RRRRR   N    N  II  N    N   GGGG   !!!           |
|           W    W   A  A   R    R  NN   N  II  NN   N  G    G  !!!           |
|           W    W  A    A  R    R  N N  N  II  N N  N  G       !!!           |
|           W WW W  AAAAAA  RRRRR   N  N N  II  N  N N  G  GGG   !            |
|           WW  WW  A    A  R   R   N   NN  II  N   NN  G    G                |
|           W    W  A    A  R    R  N    N  II  N    N   GGGG   !!!           |
|     For optimal performance we recommend to set                             |
|       NCORE = 2 up to number-of-cores-per-socket                            |
|     This setting can greatly improve the performance of VASP for DFT.       |
|     The default, NCORE=1 might be grossly inefficient on modern             |
|     multi-core architectures or massively parallel machines. Do your        |
|     Unfortunately you need to use the default for GW and RPA                |
|     calculations (for HF NCORE is supported but not extensively tested      |
|     yet).                                                                   |

 POTCAR:    PAW_PBE Mo_sv 02Feb2006
   VRHFIN =Mo: 4p5s4d

   TITEL  = PAW_PBE Mo_sv 02Feb2006
   POMASS =   95.940; ZVAL   =   14.000    mass and valenz
   ENMAX  =  242.676; ENMIN  =  182.007 eV

 POTCAR:    PAW_PBE Si 05Jan2001
   VRHFIN =Si: s2p2

   TITEL  = PAW_PBE Si 05Jan2001
   POMASS =   28.085; ZVAL   =    4.000    mass and valenz
   ENMAX  =  245.345; ENMIN  =  184.009 eV

  PAW_PBE Mo_sv 02Feb2006               :
  PAW_PBE Si 05Jan2001                  :

 POSCAR: EA257
  positions in direct lattice

 METAGGA = R2SCA    LMAXTAU =  6    LMIXTAU =  F

 ion  position               nearest neighbor table
   1  0.276  0.147  0.301-  13 2.53  14 2.58  16 2.59  15 2.59   8 2.72  12 2.80  12 2.80   7 2.86
                             7 2.86   9 3.02  10 3.02   5 3.16   5 3.16   3 3.23   4 3.23
   2  0.724  0.853  0.699-  12 2.53  11 2.58  15 2.59  16 2.59   5 2.72  13 2.80  13 2.80   6 2.86
                             6 2.86  10 3.02   9 3.02   8 3.16   8 3.16   4 3.23   3 3.23
   3  0.423  0.301  0.853-  14 2.53  12 2.58  16 2.59  15 2.59   6 2.72  11 2.80  11 2.80   8 2.86
                             8 2.86  10 3.02   9 3.02   7 3.16   7 3.16   1 3.23   2 3.23
   4  0.577  0.699  0.147-  11 2.53  13 2.58  15 2.59  16 2.59   7 2.72  14 2.80  14 2.80   5 2.86
                             5 2.86   9 3.02  10 3.02   6 3.16   6 3.16   2 3.23   1 3.23
   5  0.923  0.853  0.301-  12 2.53  14 2.58  15 2.59  16 2.59   2 2.72  13 2.80  13 2.80   4 2.86
                             4 2.86   9 3.02  10 3.02   1 3.16   1 3.16   7 3.23   6 3.23
   6  0.224  0.699  0.853-  14 2.53  13 2.58  16 2.59  15 2.59   3 2.72  11 2.80  11 2.80   2 2.86
                             2 2.86   9 3.02  10 3.02   4 3.16   4 3.16   8 3.23   5 3.23
   7  0.776  0.301  0.147-  11 2.53  12 2.58  15 2.59  16 2.59   4 2.72  14 2.80  14 2.80   1 2.86
                             1 2.86  10 3.02   9 3.02   3 3.16   3 3.16   5 3.23   8 3.23
   8  0.077  0.147  0.699-  13 2.53  11 2.58  16 2.59  15 2.59   1 2.72  12 2.80  12 2.80   3 2.86
                             3 2.86  10 3.02   9 3.02   2 3.16   2 3.16   6 3.23   7 3.23
   9  0.750  0.500  0.500-  10 2.45  10 2.45  14 2.59  13 2.59  12 2.59  11 2.59   5 3.02   4 3.02
                             1 3.02   6 3.02   2 3.02   7 3.02   3 3.02   8 3.02
  10  0.250  0.500  0.500-   9 2.45   9 2.45  11 2.59  12 2.59  13 2.59  14 2.59   8 3.02   3 3.02
                             2 3.02   7 3.02   1 3.02   6 3.02   4 3.02   5 3.02
  11  0.833  0.500  0.834-   7 2.53   4 2.53   2 2.58   8 2.58  10 2.59   9 2.59   3 2.80   6 2.80
                             6 2.80   3 2.80
  12  0.667  0.166  0.500-   2 2.53   5 2.53   7 2.58   3 2.58  10 2.59   9 2.59   8 2.80   1 2.80
                             1 2.80   8 2.80
  13  0.333  0.834  0.500-   1 2.53   8 2.53   6 2.58   4 2.58   9 2.59  10 2.59   5 2.80   2 2.80
                             2 2.80   5 2.80
  14  0.167  0.500  0.166-   6 2.53   3 2.53   1 2.58   5 2.58   9 2.59  10 2.59   4 2.80   7 2.80
                             7 2.80   4 2.80
  15  0.750  0.000  0.000-  16 2.45  16 2.45   4 2.59   5 2.59   7 2.59   2 2.59   6 2.59   1 2.59
                             8 2.59   3 2.59
  16  0.250  0.000  0.000-  15 2.45  15 2.45   3 2.59   8 2.59   6 2.59   1 2.59   7 2.59   2 2.59
                             5 2.59   4 2.59

  LATTYP: Found a body centered tetragonal cell.
 ALAT       =     9.6460498049
 C/A-ratio  =     0.5076810495

  Lattice vectors:

 A1 = (  -2.3036938200,   6.8207868300,  -0.8297179700)
 A2 = (  -2.3036938200,  -6.8207868300,  -0.8297189800)
 A3 = (  -0.0075972300,   0.0000000000,   7.2469664100)

Analysis of symmetry for initial positions (statically):
 Subroutine PRICEL returns:
 Original cell was already a primitive cell.

 Routine SETGRP: Setting up the symmetry group for a
 body centered tetragonal supercell.

 Subroutine GETGRP returns: Found 16 space group operations
 (whereof  8 operations were pure point group operations)
 out of a pool of 16 trial point group operations.

The static configuration has the point symmetry C_4h.
 The point group associated with its full space group is D_4h.

Analysis of symmetry for dynamics (positions and initial velocities):
 Subroutine PRICEL returns:
 Original cell was already a primitive cell.

 Routine SETGRP: Setting up the symmetry group for a
 body centered tetragonal supercell.

 Subroutine GETGRP returns: Found 16 space group operations
 (whereof  8 operations were pure point group operations)
 out of a pool of 16 trial point group operations.

The dynamic configuration has the point symmetry C_4h.
 The point group associated with its full space group is D_4h.

 Subroutine INISYM returns: Found 16 space group operations
 (whereof  8 operations are pure point group operations),
 and found     1 'primitive' translations

                                     Primitive cell

  volume of cell :     227.8292

  direct lattice vectors                    reciprocal lattice vectors
     4.607387640  0.000000000  1.659436950     0.216960813 -0.073305326  0.000227447
     2.303693820  6.820786830  0.829718980     0.000000000  0.146610651  0.000000000
    -0.007597230  0.000000000  7.246966410    -0.049680483 -0.000000010  0.137936691

  length of vectors
     4.897116688  7.246969835  7.246970392     0.229010298  0.146610651  0.146610644

  position of ions in fractional coordinates (direct lattice)
     0.276119010  0.146941720  0.300819260
     0.723880990  0.853058280  0.699180740
     0.423059730  0.300819260  0.853058280
     0.576940270  0.699180740  0.146941720
     0.923059730  0.853058280  0.300819260
     0.223880990  0.699180740  0.853058280
     0.776119010  0.300819260  0.146941720
     0.076940270  0.146941720  0.699180740
     0.750000000  0.500000000  0.500000000
     0.250000000  0.500000000  0.500000000
     0.832783630  0.500000000  0.834433750
     0.667216370  0.165566250  0.500000000
     0.332783630  0.834433750  0.500000000
     0.167216370  0.500000000  0.165566250
     0.750000000  0.000000000  0.000000000
     0.250000000  0.000000000  0.000000000

  ion indices of the primitive-cell ions
   primitive index   ion index
                 1           1
                 2           2
                 3           3
                 4           4
                 5           5
                 6           6
                 7           7
                 8           8
                 9           9
                10          10
                11          11
                12          12
                13          13
                14          14
                15          15
                16          16

 KPOINTS: EA

Automatic generation of k-mesh.
 Grid dimensions read from file:
 generate k-points for:    8    5    5

 Generating k-lattice:

  Cartesian coordinates                     Fractional coordinates (reciprocal lattice)
     0.027120102 -0.009163166  0.000028431     0.125000000  0.000000000  0.000000000
     0.000000000  0.029322130  0.000000000     0.000000000  0.200000000  0.000000000
    -0.009936097 -0.000000002  0.027587338    -0.000000000 -0.000000000  0.200000000

  Length of vectors
     0.028626287  0.029322130  0.029322129

  Shift w.r.t. Gamma in fractional coordinates (k-lattice)
     0.000000000  0.000000000  0.000000000

 WARNING: IBZKPT: internal override: KBLOWUP is changed to .FALSE.
      ... skipping the blow-up phase ...

 Subroutine IBZKPT returns following result:

 Found     60 irreducible k-points:

 Following reciprocal coordinates:
            Coordinates               Weight
  0.000000  0.000000  0.000000      1.000000
  0.125000 -0.000000  0.000000      2.000000
  0.250000 -0.000000  0.000000      2.000000
  0.375000  0.000000 -0.000000      2.000000
  0.500000 -0.000000  0.000000      1.000000
  0.000000  0.200000  0.000000      4.000000
  0.125000  0.200000  0.000000      4.000000
  0.250000  0.200000  0.000000      4.000000
  0.375000  0.200000 -0.000000      4.000000
  0.500000  0.200000  0.000000      4.000000
 -0.375000  0.200000  0.000000      4.000000
 -0.250000  0.200000  0.000000      4.000000
 -0.125000  0.200000  0.000000      4.000000
  0.000000  0.400000  0.000000      4.000000
  0.125000  0.400000  0.000000      4.000000
  0.250000  0.400000  0.000000      4.000000
  0.375000  0.400000 -0.000000      4.000000
  0.500000  0.400000  0.000000      4.000000
 -0.375000  0.400000  0.000000      4.000000
 -0.250000  0.400000  0.000000      4.000000
 -0.125000  0.400000  0.000000      4.000000
  0.000000  0.200000  0.200000      4.000000
  0.125000  0.200000  0.200000      2.000000
  0.250000  0.200000  0.200000      2.000000
  0.375000  0.200000  0.200000      2.000000
  0.500000  0.200000  0.200000      2.000000
 -0.375000  0.200000  0.200000      2.000000
 -0.250000  0.200000  0.200000      2.000000
 -0.125000  0.200000  0.200000      2.000000
  0.000000  0.400000  0.200000      8.000000
  0.125000  0.400000  0.200000      4.000000
  0.250000  0.400000  0.200000      4.000000
  0.375000  0.400000  0.200000      4.000000
  0.500000  0.400000  0.200000      4.000000
 -0.375000  0.400000  0.200000      4.000000
 -0.250000  0.400000  0.200000      4.000000
 -0.125000  0.400000  0.200000      4.000000
  0.125000 -0.400000  0.200000      4.000000
  0.250000 -0.400000  0.200000      4.000000
  0.375000 -0.400000  0.200000      4.000000
  0.500000 -0.400000  0.200000      4.000000
 -0.375000 -0.400000  0.200000      4.000000
[...]
   0.25000000  0.20000000  0.20000000       0.010
   0.37500000  0.20000000  0.20000000       0.010
   0.50000000  0.20000000  0.20000000       0.010
  -0.37500000  0.20000000  0.20000000       0.010
  -0.25000000  0.20000000  0.20000000       0.010
  -0.12500000  0.20000000  0.20000000       0.010
   0.00000000  0.40000000  0.20000000       0.040
   0.12500000  0.40000000  0.20000000       0.020
   0.25000000  0.40000000  0.20000000       0.020
   0.37500000  0.40000000  0.20000000       0.020
   0.50000000  0.40000000  0.20000000       0.020
  -0.37500000  0.40000000  0.20000000       0.020
  -0.25000000  0.40000000  0.20000000       0.020
  -0.12500000  0.40000000  0.20000000       0.020
   0.12500000 -0.40000000  0.20000000       0.020
   0.25000000 -0.40000000  0.20000000       0.020
   0.37500000 -0.40000000  0.20000000       0.020
   0.50000000 -0.40000000  0.20000000       0.020
  -0.37500000 -0.40000000  0.20000000       0.020
  -0.25000000 -0.40000000  0.20000000       0.020
  -0.12500000 -0.40000000  0.20000000       0.020
   0.12500000 -0.20000000  0.20000000       0.020
   0.25000000 -0.20000000  0.20000000       0.020
   0.37500000 -0.20000000  0.20000000       0.020
   0.50000000 -0.20000000  0.20000000       0.010
   0.00000000  0.40000000  0.40000000       0.020
   0.12500000  0.40000000  0.40000000       0.010
   0.25000000  0.40000000  0.40000000       0.010
   0.37500000  0.40000000  0.40000000       0.010
   0.50000000  0.40000000  0.40000000       0.010
  -0.37500000  0.40000000  0.40000000       0.010
  -0.25000000  0.40000000  0.40000000       0.010
  -0.12500000  0.40000000  0.40000000       0.010
   0.12500000 -0.40000000  0.40000000       0.020
   0.25000000 -0.40000000  0.40000000       0.020
   0.37500000 -0.40000000  0.40000000       0.020
   0.50000000 -0.40000000  0.40000000       0.010

 position of ions in fractional coordinates (direct lattice)
   0.27611901  0.14694172  0.30081926
   0.72388099  0.85305828  0.69918074
   0.42305973  0.30081926  0.85305828
   0.57694027  0.69918074  0.14694172
   0.92305973  0.85305828  0.30081926
   0.22388099  0.69918074  0.85305828
   0.77611901  0.30081926  0.14694172
   0.07694027  0.14694172  0.69918074
   0.75000000  0.50000000  0.50000000
   0.25000000  0.50000000  0.50000000
   0.83278363  0.50000000  0.83443375
   0.66721637  0.16556625  0.50000000
   0.33278363  0.83443375  0.50000000
   0.16721637  0.50000000  0.16556625
   0.75000000  0.00000000  0.00000000
   0.25000000  0.00000000  0.00000000

 position of ions in cartesian coordinates  (Angst):
   1.60841065  1.00225815  2.76014949
   5.29507358  5.81852868  6.97597285
   2.63571476  2.05182405  7.13372110
   4.26776947  4.76896278  2.60240124
   6.21579369  5.81852868  4.41958514
   2.63572398  4.76896278  7.13372462
   4.26776025  2.05182405  2.60239772
   0.68769054  1.00225815  5.31653720
   4.60358902  3.41039342  5.28292041
   2.29989520  3.41039342  4.45320193
   4.98246453  3.41039342  7.84392477
   3.45173979  1.12929210  4.86806016
   3.45174444  5.69149473  4.86806218
   1.92101970  3.41039342  1.89219757
   3.45554073  0.00000000  1.24457771
   1.15184691  0.00000000  0.41485924

 k-point   1 :   0.0000 0.0000 0.0000  plane waves:    7601
 k-point   2 :   0.1250-0.0000 0.0000  plane waves:    7626
 k-point   3 :   0.2500-0.0000 0.0000  plane waves:    7620
 k-point   4 :   0.3750 0.0000-0.0000  plane waves:    7615
 k-point   5 :   0.5000-0.0000 0.0000  plane waves:    7586
 k-point   6 :   0.0000 0.2000 0.0000  plane waves:    7615
 k-point   7 :   0.1250 0.2000 0.0000  plane waves:    7614
 k-point   8 :   0.2500 0.2000 0.0000  plane waves:    7609
 k-point   9 :   0.3750 0.2000-0.0000  plane waves:    7621
 k-point  10 :   0.5000 0.2000 0.0000  plane waves:    7599
 k-point  11 :  -0.3750 0.2000 0.0000  plane waves:    7607
 k-point  12 :  -0.2500 0.2000 0.0000  plane waves:    7605
 k-point  13 :  -0.1250 0.2000 0.0000  plane waves:    7619
 k-point  14 :   0.0000 0.4000 0.0000  plane waves:    7584
 k-point  15 :   0.1250 0.4000 0.0000  plane waves:    7601
 k-point  16 :   0.2500 0.4000 0.0000  plane waves:    7608
 k-point  17 :   0.3750 0.4000-0.0000  plane waves:    7617
 k-point  18 :   0.5000 0.4000 0.0000  plane waves:    7593
 k-point  19 :  -0.3750 0.4000 0.0000  plane waves:    7604
 k-point  20 :  -0.2500 0.4000 0.0000  plane waves:    7607
 k-point  21 :  -0.1250 0.4000 0.0000  plane waves:    7596
 k-point  22 :   0.0000 0.2000 0.2000  plane waves:    7609
 k-point  23 :   0.1250 0.2000 0.2000  plane waves:    7611
 k-point  24 :   0.2500 0.2000 0.2000  plane waves:    7614
 k-point  25 :   0.3750 0.2000 0.2000  plane waves:    7611
 k-point  26 :   0.5000 0.2000 0.2000  plane waves:    7625
 k-point  27 :  -0.3750 0.2000 0.2000  plane waves:    7590
 k-point  28 :  -0.2500 0.2000 0.2000  plane waves:    7590
 k-point  29 :  -0.1250 0.2000 0.2000  plane waves:    7607
 k-point  30 :   0.0000 0.4000 0.2000  plane waves:    7599
 k-point  31 :   0.1250 0.4000 0.2000  plane waves:    7598
 k-point  32 :   0.2500 0.4000 0.2000  plane waves:    7605
 k-point  33 :   0.3750 0.4000 0.2000  plane waves:    7619
 k-point  34 :   0.5000 0.4000 0.2000  plane waves:    7612
 k-point  35 :  -0.3750 0.4000 0.2000  plane waves:    7591
 k-point  36 :  -0.2500 0.4000 0.2000  plane waves:    7582
 k-point  37 :  -0.1250 0.4000 0.2000  plane waves:    7593
 k-point  38 :   0.1250-0.4000 0.2000  plane waves:    7593
 k-point  39 :   0.2500-0.4000 0.2000  plane waves:    7609
 k-point  40 :   0.3750-0.4000 0.2000  plane waves:    7609
 k-point  41 :   0.5000-0.4000 0.2000  plane waves:    7616
 k-point  42 :  -0.3750-0.4000 0.2000  plane waves:    7599
 k-point  43 :  -0.2500-0.4000 0.2000  plane waves:    7592
 k-point  44 :  -0.1250-0.4000 0.2000  plane waves:    7599
 k-point  45 :   0.1250-0.2000 0.2000  plane waves:    7605
 k-point  46 :   0.2500-0.2000 0.2000  plane waves:    7594
 k-point  47 :   0.3750-0.2000 0.2000  plane waves:    7613
 k-point  48 :   0.5000-0.2000 0.2000  plane waves:    7614
 k-point  49 :   0.0000 0.4000 0.4000  plane waves:    7628
 k-point  50 :   0.1250 0.4000 0.4000  plane waves:    7586
 k-point  51 :   0.2500 0.4000 0.4000  plane waves:    7605
 k-point  52 :   0.3750 0.4000 0.4000  plane waves:    7621
 k-point  53 :   0.5000 0.4000 0.4000  plane waves:    7599
 k-point  54 :  -0.3750 0.4000 0.4000  plane waves:    7596
 k-point  55 :  -0.2500 0.4000 0.4000  plane waves:    7571
 k-point  56 :  -0.1250 0.4000 0.4000  plane waves:    7579
 k-point  57 :   0.1250-0.4000 0.4000  plane waves:    7597
 k-point  58 :   0.2500-0.4000 0.4000  plane waves:    7597
 k-point  59 :   0.3750-0.4000 0.4000  plane waves:    7598
 k-point  60 :   0.5000-0.4000 0.4000  plane waves:    7610

 maximum and minimum number of plane-waves per node :      3824     3781

 maximum number of plane-waves:      7628
 maximum index in each direction:
   IXMAX=   10   IYMAX=   14   IZMAX=   14
   IXMIN=  -10   IYMIN=  -14   IZMIN=  -14

 parallel 3D FFT for wavefunctions:
    minimum data exchange during FFTs selected (reduces bandwidth)
 parallel 3D FFT for charge:
    minimum data exchange during FFTs selected (reduces bandwidth)

 Broyden mixing: mesh for mixing (old mesh)
   NGX = 19   NGY = 29   NGZ = 29
  (NGX  = 80   NGY  =120   NGZ  =120)
  gives a total of  15979 points

 initial charge density was supplied:
 charge density of overlapping atoms calculated
 number of electron     164.0000000 magnetization
 keeping initial charge density in first step

 Maximum index for augmentation-charges        20260 (set IRDMAX)

 First call to EWALD:  gamma=   0.290
 Maximum number of real-space cells 4x 3x 3
 Maximum number of reciprocal cells 2x 3x 3

--------------------------------------- Iteration      1(   1)  ---------------------------------------

 eigenvalue-minimisations  : 12264
 total energy-change (2. order) : 0.1856247E+04  (-0.1122172E+05)
 number of electron     164.0000000 magnetization
 augmentation part      164.0000000 magnetization

 Free energy of the ion-electron system (eV)
  alpha Z        PSCENC =       983.89322379
  Ewald energy   TEWEN  =    -16153.47994997
  -Hartree energ DENC   =     -3741.07652922
  -exchange      EXHF   =         0.00000000
  -V(xc)+E(xc)   XCENC  =       741.63325856
  PAW double counting   =     15361.16738711   -15262.53574355
  entropy T*S    EENTRO =        -0.00153421
  eigenvalues    EBANDS =       685.42210522
  atomic energy  EATOM  =     19241.22456498
  free energy    TOTEN  =      1856.24678271 eV

  energy without entropy =     1856.24831692  energy(sigma->0) =     1856.24754982

[...]

 eigenvalue-minimisations  : 13260
 total energy-change (2. order) :-0.2146541E+04  (-0.2086045E+04)
 number of electron     164.0000000 magnetization
 augmentation part      164.0000000 magnetization

[...]

 eigenvalue-minimisations  :     0
 total energy-change (2. order) : 0.8485402E+02  (-0.1416914E+02)
 number of electron     164.0000001 magnetization
 augmentation part       23.1661709 magnetization

[...]

 eigenvalue-minimisations  :     0
 total energy-change (2. order) :-0.1739427E-06  ( 0.1116883E-07)
 number of electron     164.0000001 magnetization
 augmentation part       23.3272301 magnetization

[...]

 eigenvalue-minimisations  :     0
 total energy-change (2. order) :-0.5202673E-07  ( 0.1375175E-07)
 number of electron     164.0000001 magnetization
 augmentation part       23.3272348 magnetization

[...]

--------------------------------------- Iteration      1(  31)  ---------------------------------------

 eigenvalue-minimisations  :     0
 total energy-change (2. order) :-0.3092282E-09  (-0.7513031E-10)
 number of electron     164.0000001 magnetization
 augmentation part       23.3272315 magnetization

 Free energy of the ion-electron system (eV)
  alpha Z        PSCENC =       983.89322379
  Ewald energy   TEWEN  =    -16153.47994997
  -Hartree energ DENC   =     -3480.81004282
  -exchange      EXHF   =         0.00000000
  -V(xc)+E(xc)   XCENC  =       755.24744384
  PAW double counting   =     22094.96464292   -22029.84480335
  entropy T*S    EENTRO =        -0.00090363
  eigenvalues    EBANDS =     -1730.93206633
  atomic energy  EATOM  =     19241.22456498
  free energy    TOTEN  =      -319.73789056 eV

  energy without entropy =     -319.73698694  energy(sigma->0) =     -319.73743875

  average scaling for gradient   0.8787

 average (electrostatic) potential at core
  the test charge radii are     1.0818  0.9892
  (the norm of the test charge is              1.0000)
       1 -74.3390       2 -74.3390       3 -74.3390       4 -74.3390       5 -74.3390
       6 -74.3390       7 -74.3390       8 -74.3390       9 -74.2497      10 -74.2497
      11 -79.7644      12 -79.7644      13 -79.7644      14 -79.7644      15 -79.8917
      16 -79.8917

 E-fermi :  12.5941     XC(G=0): -14.0173     alpha+bet :-20.0304

 Fermi energy:        12.5941111283

 k-point     1 :       0.0000    0.0000    0.0000
  band No.  band energies     occupation
      1     -50.5534      2.00000
      2     -50.4475      2.00000
      3     -50.4165      2.00000
      4     -50.4165      2.00000
      5     -50.3724      2.00000
      6     -50.3581      2.00000
      7     -50.3305      2.00000
      8     -50.3305      2.00000
      9     -50.3014      2.00000
     10     -50.1369      2.00000
     11     -25.1791      2.00000
     12     -24.1724      2.00000
     13     -24.1562      2.00000
     14     -24.1562      2.00000
     15     -24.1196      2.00000
     16     -24.1156      2.00000
     17     -24.1156      2.00000
     18     -24.0084      2.00000
     19     -24.0003      2.00000
     20     -23.9670      2.00000
     21     -23.9670      2.00000
     22     -23.8730      2.00000
     23     -23.8100      2.00000
     24     -23.8098      2.00000
     25     -23.7390      2.00000
     26     -23.7390      2.00000
     27     -23.6441      2.00000
     28     -23.6441      2.00000
     29     -23.6323      2.00000
     30     -23.6155      2.00000
     31     -23.5643      2.00000
     32     -23.5643      2.00000
     33     -23.5504      2.00000
     34     -23.5186      2.00000
     35     -23.5186      2.00000
     36     -23.4938      2.00000
     37     -23.4892      2.00000
     38     -23.4892      2.00000
     39     -23.4652      2.00000
     40     -22.6871      2.00000
     41       0.2658      2.00000
     42       2.1274      2.00000
     43       3.2248      2.00000
     44       3.5761      2.00000
     45       3.5761      2.00000
     46       5.4949      2.00000
     47       5.9811      2.00000
     48       6.0581      2.00000
     49       6.0581      2.00000
     50       6.4608      2.00000
     51       7.5104      2.00000
     52       7.5104      2.00000
     53       7.6084      2.00000
     54       7.7260      2.00000
     55       7.7530      2.00000
     56       7.7736      2.00000
     57       7.8690      2.00000
     58       7.8690      2.00000
     59       8.5065      2.00000
     60       8.5119      2.00000
[...]
     88      13.6384      0.00000
     89      13.7105      0.00000
     90      14.2260      0.00000
     91      14.5404      0.00000
     92      14.7624      0.00000
     93      14.7628      0.00000
     94      14.8040      0.00000
     95      15.3514      0.00000
     96      15.3562      0.00000
     97      15.3728      0.00000
     98      15.4933      0.00000
     99      15.4959      0.00000
    100      15.6220      0.00000
    101      15.6788      0.00000
    102      16.2666      0.00000

[...]

 k-point    60 :       0.5000   -0.4000    0.4000
  band No.  band energies     occupation
      1     -50.4181      2.00000
      2     -50.4181      2.00000
      3     -50.4064      2.00000
      4     -50.4064      2.00000
      5     -50.3441      2.00000
      6     -50.3441      2.00000
      7     -50.3370      2.00000
      8     -50.3370      2.00000
      9     -50.3308      2.00000
     10     -50.3308      2.00000
     11     -24.1632      2.00000
     12     -24.1632      2.00000
     13     -24.1373      2.00000
     14     -24.1373      2.00000
     15     -24.0895      2.00000
     16     -24.0895      2.00000
     17     -24.0304      2.00000
     18     -24.0304      2.00000
     19     -23.9877      2.00000
     20     -23.9877      2.00000
     21     -23.9267      2.00000
     22     -23.9267      2.00000
     23     -23.8550      2.00000
     24     -23.8550      2.00000
     25     -23.7581      2.00000
     26     -23.7581      2.00000
     27     -23.6828      2.00000
     28     -23.6828      2.00000
     29     -23.6558      2.00000
     30     -23.6558      2.00000
     31     -23.6353      2.00000
     32     -23.6353      2.00000
     33     -23.5929      2.00000
     34     -23.5929      2.00000
     35     -23.5500      2.00000
     36     -23.5500      2.00000
     37     -23.4685      2.00000
     38     -23.4685      2.00000
     39     -23.4403      2.00000
     40     -23.4403      2.00000
     41       2.0677      2.00000
     42       2.0677      2.00000
     43       2.9191      2.00000
     44       2.9191      2.00000
     45       3.4108      2.00000
     46       3.4108      2.00000
     47       6.0721      2.00000
     48       6.0721      2.00000
     49       6.7611      2.00000
     50       6.7611      2.00000
     51       7.5068      2.00000
     52       7.5068      2.00000
     53       8.1254      2.00000
     54       8.1254      2.00000
     55       8.2223      2.00000
     56       8.2223      2.00000
     57       8.5647      2.00000
     58       8.5647      2.00000
     59       8.7275      2.00000
     60       8.7275      2.00000
[...]
     88      13.2378      0.00000
     89      13.6679      0.00000
     90      13.6679      0.00000
     91      14.0121      0.00000
     92      14.0121      0.00000
     93      14.2562      0.00000
     94      14.2562      0.00000
     95      14.7546      0.00000
     96      14.7572      0.00000
     97      14.9456      0.00000
     98      14.9541      0.00000
     99      15.1490      0.00000
    100      15.1769      0.00000
    101      15.5501      0.00000
    102      15.6930      0.00000

 soft charge-density along one line, spin component           1
         0         1         2         3         4         5         6         7         8         9
 total charge-density along one line

------------------------ aborting loop because EDIFF is reached ----------------------------------------

  FREE ENERGIE OF THE ION-ELECTRON SYSTEM (eV)
  free  energy   TOTEN  =      -319.73789056 eV

  energy  without entropy=     -319.73698694  energy(sigma->0) =     -319.73743875

 writing wavefunctions