 vasp.6.2.0 18Jan21 (build Jan 05 2022 15:41:44) complex

 executed on             LinuxIFC date 2025.05.07  18:23:06

 INCAR:
   SYSTEM = routine with relax: pwdword
   ICHARG = 2
   NPAR = 6
   KPAR = 2
   NCORE = 2
   ADDGRID = T
   PREC = Acc
   ENCUT = 600
   METAGGA = R2SCAN
   LASPH = .TRUE.
   LMIXTAU = .FALSE.
   ALGO = A
   EDIFF = 1E-9
   NELM = 100
   NELMIN = 6
   IALGO = 38
   LREAL = F
   NSW = 0
   ISIF = -1
   ISMEAR = 0
   SIGMA = 0.02

 POTCAR:    PAW_PBE B 06Sep2000
 POTCAR:    PAW_PBE Mo_sv 02Feb2006
 POTCAR:    PAW_PBE Si 05Jan2001
|           W    W    AA    RRRRR   N    N  II  N    N   GGGG   !!!           |
|           W    W   A  A   R    R  NN   N  II  NN   N  G    G  !!!           |
|           W    W  A    A  R    R  N N  N  II  N N  N  G       !!!           |
|           W WW W  AAAAAA  RRRRR   N  N N  II  N  N N  G  GGG   !            |
|           WW  WW  A    A  R   R   N   NN  II  N   NN  G    G                |
|           W    W  A    A  R    R  N    N  II  N    N   GGGG   !!!           |
|     For optimal performance we recommend to set                             |
|       NCORE = 2 up to number-of-cores-per-socket                            |
|     This setting can greatly improve the performance of VASP for DFT.       |
|     The default, NCORE=1 might be grossly inefficient on modern             |
|     multi-core architectures or massively parallel machines. Do your        |
|     Unfortunately you need to use the default for GW and RPA                |
|     calculations (for HF NCORE is supported but not extensively tested      |
|     yet).                                                                   |

 POTCAR:    PAW_PBE B 06Sep2000
   VRHFIN =B: s2p1

   TITEL  = PAW_PBE B 06Sep2000
   POMASS =   10.811; ZVAL   =    3.000    mass and valenz
   ENMAX  =  318.614; ENMIN  =  238.960 eV

 POTCAR:    PAW_PBE Mo_sv 02Feb2006
   VRHFIN =Mo: 4p5s4d

   TITEL  = PAW_PBE Mo_sv 02Feb2006
   POMASS =   95.940; ZVAL   =   14.000    mass and valenz
   ENMAX  =  242.676; ENMIN  =  182.007 eV

 POTCAR:    PAW_PBE Si 05Jan2001
   VRHFIN =Si: s2p2

   TITEL  = PAW_PBE Si 05Jan2001
   POMASS =   28.085; ZVAL   =    4.000    mass and valenz
   ENMAX  =  245.345; ENMIN  =  184.009 eV

  PAW_PBE B 06Sep2000                   :
  PAW_PBE Mo_sv 02Feb2006               :
  PAW_PBE Si 05Jan2001                  :

 POSCAR: EA153
  positions in direct lattice

 METAGGA = R2SCA    LMAXTAU =  6    LMIXTAU =  F

 ion  position               nearest neighbor table
   1  0.000  0.500  0.000-  11 2.01  12 2.01   6 2.01   8 2.01   7 2.05   5 2.05
   2  0.500  0.500  0.500-   8 2.01   6 2.01  12 2.01  11 2.01  10 2.05   9 2.05
   3  0.500  0.000  0.000-  12 2.01  11 2.01   6 2.01   8 2.01   7 2.05   5 2.05
   4  0.000  0.000  0.500-   6 2.01   8 2.01  12 2.01  11 2.01  10 2.05   9 2.05
   5  0.735  0.235  0.970-   3 2.05   1 2.05  11 2.78  12 2.78   9 2.84  10 2.84  10 2.84   9 2.84
                             6 2.87   8 2.87   6 2.87   8 2.87  12 2.95  11 2.95
   6  0.250  0.250  0.000-   2 2.01   4 2.01   3 2.01   1 2.01  12 2.84  11 2.84  11 2.84  12 2.84
                            10 2.87  10 2.87   5 2.87   7 2.87   9 2.87   9 2.87   5 2.87   7 2.87
   7  0.265  0.765  0.030-   3 2.05   1 2.05  12 2.78  11 2.78  10 2.84   9 2.84   9 2.84  10 2.84
                             6 2.87   8 2.87   8 2.87   6 2.87  11 2.95  12 2.95
   8  0.750  0.750  0.000-   4 2.01   2 2.01   1 2.01   3 2.01  12 2.84  11 2.84  12 2.84  11 2.84
                             9 2.87   9 2.87   5 2.87   7 2.87  10 2.87  10 2.87   7 2.87   5 2.87
   9  0.235  0.265  0.500-   2 2.05   4 2.05  11 2.78  12 2.78   5 2.84   7 2.84   7 2.84   5 2.84
                             8 2.87   8 2.87   6 2.87   6 2.87  12 2.95  11 2.95
  10  0.765  0.735  0.500-   2 2.05   4 2.05  11 2.78  12 2.78   7 2.84   5 2.84   5 2.84   7 2.84
                             6 2.87   6 2.87   8 2.87   8 2.87  11 2.95  12 2.95
  11  0.250  0.750  0.500-   3 2.01   1 2.01   4 2.01   2 2.01   5 2.78  10 2.78   9 2.78   7 2.78
                             8 2.84   6 2.84   6 2.84   8 2.84   7 2.95   5 2.95  10 2.95   9 2.95
  12  0.750  0.250  0.500-   1 2.01   3 2.01   4 2.01   2 2.01   7 2.78  10 2.78   9 2.78   5 2.78
                             8 2.84   6 2.84   8 2.84   6 2.84   5 2.95   7 2.95   9 2.95  10 2.95

  Warning from LATTYP: Got some problem with cell dimensions!
  Tried to take original basis but could not verify dimensions!
  LATTYP: Found a base centered monoclinic cell.
 ALAT       =     8.0303029154
 B/A-ratio  =     1.0000174233
 C/A-ratio  =     0.7138114284
 COS(beta)  =    -0.7004529044

  Lattice vectors:

 A1 = (   1.6036379436,  -4.6649520065,  -2.8124744201)
 A2 = (  -4.9328928507,   0.0000000000,  -2.8124744201)
 A3 = (   3.3292549071,   4.6649520065,  -0.1072711599)

Analysis of symmetry for initial positions (statically):
 Subroutine PRICEL returns:
 Original cell was already a primitive cell.

 Routine SETGRP: Setting up the symmetry group for a
 base centered monoclinic supercell.

 Subroutine GETGRP returns: Found  4 space group operations
 (whereof  2 operations were pure point group operations)
 out of a pool of  4 trial point group operations.

The static configuration has the point symmetry S_2 .
 The point group associated with its full space group is C_2h.

Analysis of symmetry for dynamics (positions and initial velocities):
 Subroutine PRICEL returns:
 Original cell was already a primitive cell.

 Routine SETGRP: Setting up the symmetry group for a
 base centered monoclinic supercell.

 Subroutine GETGRP returns: Found  4 space group operations
 (whereof  2 operations were pure point group operations)
 out of a pool of  4 trial point group operations.

The dynamic configuration has the point symmetry S_2 .
 The point group associated with its full space group is C_2h.

 Subroutine INISYM returns: Found  4 space group operations
 (whereof  2 operations are pure point group operations),
 and found     1 'primitive' translations

                                     Primitive cell

  volume of cell :     131.9082

  direct lattice vectors                    reciprocal lattice vectors
     4.932892851  0.000000000 -2.919745580     0.202720803  0.069687913  0.000000000
    -1.603637944  4.664952006 -2.919745580     0.000000000  0.214364478  0.000000000
     0.000000000  0.000000000  5.732220000     0.103257232  0.144684034  0.174452481

  length of vectors
     5.732220000  5.732220000  5.732220000     0.214364478  0.214364478  0.249056607

  position of ions in fractional coordinates (direct lattice)
     0.000000000  0.500000000  1.000000000
     0.500000000  0.500000000  0.500000000
     0.500000000  0.000000000  1.000000000
     0.000000000  0.000000000  0.500000000
     0.735030000  0.235030000  0.970070000
     0.250000000  0.250000000  1.000000000
     0.264970000  0.764970000  0.029930000
     0.750000000  0.750000000  1.000000000
     0.235030000  0.264970000  0.500000000
     0.764970000  0.735030000  0.500000000
     0.250000000  0.750000000  0.500000000
     0.750000000  0.250000000  0.500000000

  ion indices of the primitive-cell ions
   primitive index   ion index
                 1           1
                 2           2
                 3           3
                 4           4
                 5           5
                 6           6
                 7           7
                 8           8
                 9           9
                10          10
                11          11
                12          12

 KPOINTS: EA

Automatic generation of k-mesh.
 Grid dimensions read from file:
 generate k-points for:    8    8    9

 Generating k-lattice:

  Cartesian coordinates                     Fractional coordinates (reciprocal lattice)
     0.025340100  0.008710989  0.000000000     0.125000000  0.000000000  0.000000000
     0.000000000  0.026795560  0.000000000     0.000000000  0.125000000  0.000000000
     0.011473026  0.016076004  0.019383609     0.000000000 -0.000000000  0.111111111

  Length of vectors
     0.026795560  0.026795560  0.027672956

  Shift w.r.t. Gamma in fractional coordinates (k-lattice)
     0.000000000  0.000000000  0.000000000

 Subroutine IBZKPT returns following result:

 Found    165 irreducible k-points:

 Following reciprocal coordinates:
            Coordinates               Weight
  0.000000  0.000000  0.000000      1.000000
  0.125000  0.000000  0.000000      4.000000
  0.250000  0.000000  0.000000      4.000000
  0.375000  0.000000  0.000000      4.000000
  0.500000  0.000000  0.000000      2.000000
  0.125000  0.125000  0.000000      2.000000
  0.250000  0.125000  0.000000      4.000000
  0.375000  0.125000  0.000000      4.000000
  0.500000  0.125000  0.000000      4.000000
 -0.375000  0.125000  0.000000      4.000000
 -0.250000  0.125000  0.000000      4.000000
 -0.125000  0.125000  0.000000      2.000000
  0.250000  0.250000  0.000000      2.000000
  0.375000  0.250000  0.000000      4.000000
  0.500000  0.250000  0.000000      4.000000
 -0.375000  0.250000  0.000000      4.000000
 -0.250000  0.250000  0.000000      2.000000
  0.375000  0.375000  0.000000      2.000000
  0.500000  0.375000  0.000000      4.000000
 -0.375000  0.375000  0.000000      2.000000
  0.500000  0.500000  0.000000      1.000000
  0.000000  0.000000  0.111111      2.000000
  0.125000 -0.000000  0.111111      4.000000
  0.250000  0.000000  0.111111      4.000000
  0.375000  0.000000  0.111111      4.000000
  0.500000  0.000000  0.111111      4.000000
 -0.375000 -0.000000  0.111111      4.000000
 -0.250000 -0.000000  0.111111      4.000000
 -0.125000  0.000000  0.111111      4.000000
  0.125000  0.125000  0.111111      2.000000
  0.250000  0.125000  0.111111      4.000000
  0.375000  0.125000  0.111111      4.000000
  0.500000  0.125000  0.111111      4.000000
 -0.375000  0.125000  0.111111      4.000000
 -0.250000  0.125000  0.111111      4.000000
 -0.125000  0.125000  0.111111      4.000000
  0.250000  0.250000  0.111111      2.000000
  0.375000  0.250000  0.111111      4.000000
  0.500000  0.250000  0.111111      4.000000
 -0.375000  0.250000  0.111111      4.000000
 -0.250000  0.250000  0.111111      4.000000
 -0.125000  0.250000  0.111111      4.000000
  0.375000  0.375000  0.111111      2.000000
  0.500000  0.375000  0.111111      4.000000
 -0.375000  0.375000  0.111111      4.000000
 -0.250000  0.375000  0.111111      4.000000
 -0.125000  0.375000  0.111111      4.000000
  0.500000  0.500000  0.111111      2.000000
 -0.375000  0.500000  0.111111      4.000000
 -0.250000  0.500000  0.111111      4.000000
 -0.125000  0.500000  0.111111      4.000000
 -0.375000 -0.375000  0.111111      2.000000
 -0.250000 -0.375000  0.111111      4.000000
 -0.125000 -0.375000  0.111111      4.000000
 -0.250000 -0.250000  0.111111      2.000000
 -0.125000 -0.250000  0.111111      4.000000
 -0.125000 -0.125000  0.111111      2.000000
  0.000000  0.000000  0.222222      2.000000
  0.125000  0.000000  0.222222      4.000000
  0.250000  0.000000  0.222222      4.000000
[...]
  0.375000  0.375000  0.444444      2.000000
[...]
  -0.12500000  0.00000000  0.11111111       0.007
   0.12500000  0.12500000  0.11111111       0.003
   0.25000000  0.12500000  0.11111111       0.007
   0.37500000  0.12500000  0.11111111       0.007
   0.50000000  0.12500000  0.11111111       0.007
  -0.37500000  0.12500000  0.11111111       0.007
  -0.25000000  0.12500000  0.11111111       0.007
  -0.12500000  0.12500000  0.11111111       0.007
   0.25000000  0.25000000  0.11111111       0.003
   0.37500000  0.25000000  0.11111111       0.007
   0.50000000  0.25000000  0.11111111       0.007
  -0.37500000  0.25000000  0.11111111       0.007
  -0.25000000  0.25000000  0.11111111       0.007
  -0.12500000  0.25000000  0.11111111       0.007
   0.37500000  0.37500000  0.11111111       0.003
   0.50000000  0.37500000  0.11111111       0.007
  -0.37500000  0.37500000  0.11111111       0.007
  -0.25000000  0.37500000  0.11111111       0.007
  -0.12500000  0.37500000  0.11111111       0.007
   0.50000000  0.50000000  0.11111111       0.003
  -0.37500000  0.50000000  0.11111111       0.007
  -0.25000000  0.50000000  0.11111111       0.007
  -0.12500000  0.50000000  0.11111111       0.007
  -0.37500000 -0.37500000  0.11111111       0.003
  -0.25000000 -0.37500000  0.11111111       0.007
  -0.12500000 -0.37500000  0.11111111       0.007
  -0.25000000 -0.25000000  0.11111111       0.003
  -0.12500000 -0.25000000  0.11111111       0.007
  -0.12500000 -0.12500000  0.11111111       0.003
   0.00000000  0.00000000  0.22222222       0.003
   0.12500000  0.00000000  0.22222222       0.007
   0.25000000  0.00000000  0.22222222       0.007
[...]
   0.37500000  0.37500000  0.44444444       0.003
   0.50000000  0.37500000  0.44444444       0.007
  -0.37500000  0.37500000  0.44444444       0.007
  -0.25000000  0.37500000  0.44444444       0.007
  -0.12500000  0.37500000  0.44444444       0.007
   0.50000000  0.50000000  0.44444444       0.003
  -0.37500000  0.50000000  0.44444444       0.007
  -0.25000000  0.50000000  0.44444444       0.007
  -0.12500000  0.50000000  0.44444444       0.007
  -0.37500000 -0.37500000  0.44444444       0.003
  -0.25000000 -0.37500000  0.44444444       0.007
  -0.12500000 -0.37500000  0.44444444       0.007
  -0.25000000 -0.25000000  0.44444444       0.003
  -0.12500000 -0.25000000  0.44444444       0.007
  -0.12500000 -0.12500000  0.44444444       0.003

 position of ions in fractional coordinates (direct lattice)
   0.00000000  0.50000000  0.00000000
   0.50000000  0.50000000  0.50000000
   0.50000000  0.00000000  0.00000000
   0.00000000  0.00000000  0.50000000
   0.73503000  0.23503000  0.97007000
   0.25000000  0.25000000  0.00000000
   0.26497000  0.76497000  0.02993000
   0.75000000  0.75000000  0.00000000
   0.23503000  0.26497000  0.50000000
   0.76497000  0.73503000  0.50000000
   0.25000000  0.75000000  0.50000000
   0.75000000  0.25000000  0.50000000

 position of ions in cartesian coordinates  (Angst):
  -0.80181897  2.33247600 -1.45987279
   1.66462745  2.33247600 -0.05363558
   2.46644643  0.00000000 -1.45987279
   0.00000000  0.00000000  2.86611000
   3.24892121  1.09640367  2.72832626
   0.83231373  1.16623800 -1.45987279
   0.08033370  3.56854834 -2.83559742
   2.49694118  3.49871400 -4.37961837
   0.73446186  1.23607233  1.40623721
   2.59479305  3.42887967 -1.51350837
   0.03049475  3.49871400 -0.05363558
   3.29876015  1.16623800 -0.05363558

 k-point   1 :   0.0000 0.0000 0.0000  plane waves:    4405
 k-point   2 :   0.1250 0.0000 0.0000  plane waves:    4420
 k-point   3 :   0.2500 0.0000 0.0000  plane waves:    4424
 k-point   4 :   0.3750 0.0000 0.0000  plane waves:    4409
 k-point   5 :   0.5000 0.0000 0.0000  plane waves:    4400
 k-point   6 :   0.1250 0.1250 0.0000  plane waves:    4417
 k-point   7 :   0.2500 0.1250 0.0000  plane waves:    4402
 k-point   8 :   0.3750 0.1250 0.0000  plane waves:    4401
 k-point   9 :   0.5000 0.1250 0.0000  plane waves:    4407
 k-point  10 :  -0.3750 0.1250 0.0000  plane waves:    4402
 k-point  11 :  -0.2500 0.1250 0.0000  plane waves:    4412
 k-point  12 :  -0.1250 0.1250 0.0000  plane waves:    4430
 k-point  13 :   0.2500 0.2500 0.0000  plane waves:    4402
 k-point  14 :   0.3750 0.2500 0.0000  plane waves:    4396
 k-point  15 :   0.5000 0.2500 0.0000  plane waves:    4401
 k-point  16 :  -0.3750 0.2500 0.0000  plane waves:    4404
 k-point  17 :  -0.2500 0.2500 0.0000  plane waves:    4404
 k-point  18 :   0.3750 0.3750 0.0000  plane waves:    4399
 k-point  19 :   0.5000 0.3750 0.0000  plane waves:    4398
 k-point  20 :  -0.3750 0.3750 0.0000  plane waves:    4388
 k-point  21 :   0.5000 0.5000 0.0000  plane waves:    4396
 k-point  22 :   0.0000 0.0000 0.1111  plane waves:    4430
 k-point  23 :   0.1250-0.0000 0.1111  plane waves:    4415
 k-point  24 :   0.2500 0.0000 0.1111  plane waves:    4407
 k-point  25 :   0.3750 0.0000 0.1111  plane waves:    4412
 k-point  26 :   0.5000 0.0000 0.1111  plane waves:    4406
 k-point  27 :  -0.3750-0.0000 0.1111  plane waves:    4402
 k-point  28 :  -0.2500-0.0000 0.1111  plane waves:    4414
 k-point  29 :  -0.1250 0.0000 0.1111  plane waves:    4418
 k-point  30 :   0.1250 0.1250 0.1111  plane waves:    4412
 k-point  31 :   0.2500 0.1250 0.1111  plane waves:    4403
 k-point  32 :   0.3750 0.1250 0.1111  plane waves:    4401
 k-point  33 :   0.5000 0.1250 0.1111  plane waves:    4401
 k-point  34 :  -0.3750 0.1250 0.1111  plane waves:    4408
 k-point  35 :  -0.2500 0.1250 0.1111  plane waves:    4410
 k-point  36 :  -0.1250 0.1250 0.1111  plane waves:    4424
 k-point  37 :   0.2500 0.2500 0.1111  plane waves:    4390
 k-point  38 :   0.3750 0.2500 0.1111  plane waves:    4387
 k-point  39 :   0.5000 0.2500 0.1111  plane waves:    4398
 k-point  40 :  -0.3750 0.2500 0.1111  plane waves:    4409
 k-point  41 :  -0.2500 0.2500 0.1111  plane waves:    4413
 k-point  42 :  -0.1250 0.2500 0.1111  plane waves:    4404
 k-point  43 :   0.3750 0.3750 0.1111  plane waves:    4384
 k-point  44 :   0.5000 0.3750 0.1111  plane waves:    4390
 k-point  45 :  -0.3750 0.3750 0.1111  plane waves:    4394
 k-point  46 :  -0.2500 0.3750 0.1111  plane waves:    4415
 k-point  47 :  -0.1250 0.3750 0.1111  plane waves:    4417
 k-point  48 :   0.5000 0.5000 0.1111  plane waves:    4386
 k-point  49 :  -0.3750 0.5000 0.1111  plane waves:    4395
 k-point  50 :  -0.2500 0.5000 0.1111  plane waves:    4396
 k-point  51 :  -0.1250 0.5000 0.1111  plane waves:    4406
 k-point  52 :  -0.3750-0.3750 0.1111  plane waves:    4390
 k-point  53 :  -0.2500-0.3750 0.1111  plane waves:    4392
 k-point  54 :  -0.1250-0.3750 0.1111  plane waves:    4401
 k-point  55 :  -0.2500-0.2500 0.1111  plane waves:    4414
 k-point  56 :  -0.1250-0.2500 0.1111  plane waves:    4418
 k-point  57 :  -0.1250-0.1250 0.1111  plane waves:    4395
 k-point  58 :   0.0000 0.0000 0.2222  plane waves:    4412
 k-point  59 :   0.1250 0.0000 0.2222  plane waves:    4410
 k-point  60 :   0.2500 0.0000 0.2222  plane waves:    4402
[...]
 k-point 151 :   0.3750 0.3750 0.4444  plane waves:    4391
 k-point 152 :   0.5000 0.3750 0.4444  plane waves:    4382
 k-point 153 :  -0.3750 0.3750 0.4444  plane waves:    4381
 k-point 154 :  -0.2500 0.3750 0.4444  plane waves:    4382
 k-point 155 :  -0.1250 0.3750 0.4444  plane waves:    4395
 k-point 156 :   0.5000 0.5000 0.4444  plane waves:    4386
 k-point 157 :  -0.3750 0.5000 0.4444  plane waves:    4376
 k-point 158 :  -0.2500 0.5000 0.4444  plane waves:    4396
 k-point 159 :  -0.1250 0.5000 0.4444  plane waves:    4398
 k-point 160 :  -0.3750-0.3750 0.4444  plane waves:    4392
 k-point 161 :  -0.2500-0.3750 0.4444  plane waves:    4398
 k-point 162 :  -0.1250-0.3750 0.4444  plane waves:    4400
 k-point 163 :  -0.2500-0.2500 0.4444  plane waves:    4404
 k-point 164 :  -0.1250-0.2500 0.4444  plane waves:    4403
 k-point 165 :  -0.1250-0.1250 0.4444  plane waves:    4417

 maximum and minimum number of plane-waves per node :      2231     2169

 maximum number of plane-waves:      4430
 maximum index in each direction:
   IXMAX=   11   IYMAX=   11   IZMAX=   11
   IXMIN=  -11   IYMIN=  -11   IZMIN=  -11

 parallel 3D FFT for wavefunctions:
    minimum data exchange during FFTs selected (reduces bandwidth)
 parallel 3D FFT for charge:
    minimum data exchange during FFTs selected (reduces bandwidth)

 Broyden mixing: mesh for mixing (old mesh)
   NGX = 23   NGY = 23   NGZ = 23
  (NGX  = 96   NGY  = 96   NGZ  = 96)
  gives a total of  12167 points

 initial charge density was supplied:
 charge density of overlapping atoms calculated
 number of electron     104.0000000 magnetization
 keeping initial charge density in first step

 Maximum index for augmentation-charges        23815 (set IRDMAX)

 First call to EWALD:  gamma=   0.348
 Maximum number of real-space cells 3x 3x 3
 Maximum number of reciprocal cells 3x 3x 3

--------------------------------------- Iteration      1(   1)  ---------------------------------------

 eigenvalue-minimisations  : 21804
 total energy-change (2. order) : 0.1127659E+04  (-0.7183317E+04)
 number of electron     104.0000000 magnetization
 augmentation part      104.0000000 magnetization

 Free energy of the ion-electron system (eV)
  alpha Z        PSCENC =       708.28972511
  Ewald energy   TEWEN  =    -10090.52295325
  -Hartree energ DENC   =     -2154.50810692
  -exchange      EXHF   =         0.00000000
  -V(xc)+E(xc)   XCENC  =       492.91562551
  PAW double counting   =      9250.47132855    -9210.50234729
  entropy T*S    EENTRO =        -0.00069470
  eigenvalues    EBANDS =       467.00967569
  atomic energy  EATOM  =     11664.50664672
  free energy    TOTEN  =      1127.65889941 eV

  energy without entropy =     1127.65959411  energy(sigma->0) =     1127.65924676

[...]

 eigenvalue-minimisations  : 23982
 total energy-change (2. order) :-0.1317900E+04  (-0.1287828E+04)
 number of electron     104.0000000 magnetization
 augmentation part      104.0000000 magnetization

[...]

 eigenvalue-minimisations  :     0
 total energy-change (2. order) :-0.1706212E-07  (-0.5176691E-09)
 number of electron     104.0000001 magnetization
 augmentation part       14.3629012 magnetization

[...]

--------------------------------------- Iteration      1(  35)  ---------------------------------------

 eigenvalue-minimisations  :     0
 total energy-change (2. order) : 0.3310561E-09  (-0.8787038E-10)
 number of electron     104.0000001 magnetization
 augmentation part       14.3628988 magnetization

 Free energy of the ion-electron system (eV)
  alpha Z        PSCENC =       708.28972511
  Ewald energy   TEWEN  =    -10090.52295325
  -Hartree energ DENC   =     -2010.63598906
  -exchange      EXHF   =         0.00000000
  -V(xc)+E(xc)   XCENC  =       503.45202305
  PAW double counting   =     14848.81322861   -14831.54242171
  entropy T*S    EENTRO =        -0.00100557
  eigenvalues    EBANDS =      -986.97617774
  atomic energy  EATOM  =     11664.50664672
  free energy    TOTEN  =      -194.61692385 eV

  energy without entropy =     -194.61591829  energy(sigma->0) =     -194.61642107

  average scaling for gradient   0.9219

 average (electrostatic) potential at core
  the test charge radii are     0.7672  1.0818  0.9892
  (the norm of the test charge is              1.0000)
       1 -20.6637       2 -20.6682       3 -20.6634       4 -20.6682       5 -73.7845
       6 -73.5919       7 -73.7845       8 -73.5919       9 -73.7835      10 -73.7835
      11 -80.5561      12 -80.5561

 E-fermi :  12.8365     XC(G=0): -14.4988     alpha+bet :-21.2141

 Fermi energy:        12.8365100222

 k-point     1 :       0.0000    0.0000    0.0000
  band No.  band energies     occupation
      1     -50.0193      2.00000
      2     -49.8842      2.00000
      3     -49.8833      2.00000
      4     -49.8093      2.00000
      5     -49.8060      2.00000
      6     -49.7524      2.00000
      7     -24.0139      2.00000
      8     -24.0135      2.00000
      9     -23.9338      2.00000
     10     -23.8965      2.00000
     11     -23.8961      2.00000
     12     -23.8425      2.00000
     13     -23.7653      2.00000
     14     -23.4183      2.00000
     15     -23.3923      2.00000
     16     -23.3921      2.00000
     17     -23.0954      2.00000
     18     -23.0951      2.00000
     19     -22.9740      2.00000
     20     -22.9143      2.00000
     21     -22.9129      2.00000
     22     -22.8589      2.00000
     23     -22.7408      2.00000
     24     -22.7099      2.00000
     25      -1.4791      2.00000
     26       0.5068      2.00000
     27       3.1305      2.00000
     28       4.7250      2.00000
     29       4.7268      2.00000
     30       5.7756      2.00000
     31       6.2215      2.00000
     32       6.2229      2.00000
     33       6.9024      2.00000
     34       6.9038      2.00000
     35       6.9164      2.00000
     36       7.1285      2.00000
     37       7.4249      2.00000
     38       8.3922      2.00000
     39       8.3923      2.00000
     40       8.5781      2.00000
     41       9.2203      2.00000
     42       9.3073      2.00000
     43       9.7626      2.00000
     44       9.7632      2.00000
     45      10.7342      2.00000
     46      11.2669      2.00000
     47      12.1698      2.00000
     48      12.5757      2.00000
     49      12.5761      2.00000
     50      12.6374      2.00000
     51      12.6380      2.00000
     52      12.6455      2.00000
     53      13.6619      0.00000
     54      14.2910      0.00000
     55      14.3826      0.00000
     56      14.5703      0.00000
     57      14.9825      0.00000
     58      14.9837      0.00000
     59      15.1349      0.00000
     60      15.4826      0.00000
     61      15.5174      0.00000
     62      15.5752      0.00000
     63      16.1091      0.00000
     64      16.1100      0.00000
     65      16.8465      0.00000
     66      16.9733      0.00000

[...]

 k-point   165 :      -0.1250   -0.1250    0.4444
  band No.  band energies     occupation
      1     -49.9661      2.00000
      2     -49.8916      2.00000
      3     -49.8852      2.00000
      4     -49.8471      2.00000
      5     -49.8016      2.00000
      6     -49.7651      2.00000
      7     -23.9881      2.00000
      8     -23.8343      2.00000
      9     -23.8276      2.00000
     10     -23.8055      2.00000
     11     -23.6619      2.00000
     12     -23.6475      2.00000
     13     -23.5791      2.00000
     14     -23.4846      2.00000
     15     -23.3808      2.00000
     16     -23.3529      2.00000
     17     -23.3513      2.00000
     18     -23.1752      2.00000
     19     -23.1349      2.00000
     20     -23.1192      2.00000
     21     -23.0483      2.00000
     22     -23.0285      2.00000
     23     -22.7980      2.00000
     24     -22.7519      2.00000
     25      -0.3712      2.00000
     26       0.8430      2.00000
     27       2.3995      2.00000
     28       2.6849      2.00000
     29       4.6299      2.00000
     30       5.7133      2.00000
     31       6.1123      2.00000
     32       6.2376      2.00000
     33       6.7198      2.00000
     34       7.4193      2.00000
     35       7.6796      2.00000
     36       8.1418      2.00000
     37       8.6974      2.00000
     38       8.8786      2.00000
     39       8.9174      2.00000
     40       8.9928      2.00000
     41       9.8874      2.00000
     42       9.9214      2.00000
     43      10.0292      2.00000
     44      10.1245      2.00000
     45      10.5790      2.00000
     46      10.9490      2.00000
     47      11.2786      2.00000
     48      11.6443      2.00000
     49      11.9921      2.00000
     50      12.2087      2.00000
     51      12.4363      2.00000
     52      12.6342      2.00000
     53      12.8777      0.00358
     54      13.1592      0.00000
     55      13.3870      0.00000
     56      13.9821      0.00000
     57      14.3301      0.00000
     58      14.7016      0.00000
     59      14.7038      0.00000
     60      15.0675      0.00000
     61      15.2989      0.00000
     62      15.4901      0.00000
     63      15.6552      0.00000
     64      15.9370      0.00000
     65      16.2981      0.00000
     66      17.0014      0.00000

 soft charge-density along one line, spin component           1
         0         1         2         3         4         5         6         7         8         9
 total charge-density along one line

------------------------ aborting loop because EDIFF is reached ----------------------------------------

  FREE ENERGIE OF THE ION-ELECTRON SYSTEM (eV)
  free  energy   TOTEN  =      -194.61692385 eV

  energy  without entropy=     -194.61591829  energy(sigma->0) =     -194.61642107

 writing wavefunctions