 vasp.6.2.0 18Jan21 (build Jan 05 2022 15:41:44) complex

 executed on             LinuxIFC date 2025.05.07  14:20:51

 INCAR:
   SYSTEM = routine with relax: pwdword
   ICHARG = 2
   NPAR = 6
   KPAR = 2
   NCORE = 2
   ADDGRID = T
   PREC = Acc
   ENCUT = 600
   METAGGA = R2SCAN
   LASPH = .TRUE.
   LMIXTAU = .FALSE.
   ALGO = A
   EDIFF = 1E-9
   NELM = 100
   NELMIN = 6
   IALGO = 38
   LREAL = F
   NSW = 0
   ISIF = -1
   ISMEAR = 0
   SIGMA = 0.02

 POTCAR:    PAW_PBE B 06Sep2000
 POTCAR:    PAW_PBE Mo_sv 02Feb2006
 POTCAR:    PAW_PBE Si 05Jan2001
|           W    W    AA    RRRRR   N    N  II  N    N   GGGG   !!!           |
|           W    W   A  A   R    R  NN   N  II  NN   N  G    G  !!!           |
|           W    W  A    A  R    R  N N  N  II  N N  N  G       !!!           |
|           W WW W  AAAAAA  RRRRR   N  N N  II  N  N N  G  GGG   !            |
|           WW  WW  A    A  R   R   N   NN  II  N   NN  G    G                |
|           W    W  A    A  R    R  N    N  II  N    N   GGGG   !!!           |
|     For optimal performance we recommend to set                             |
|       NCORE = 2 up to number-of-cores-per-socket                            |
|     This setting can greatly improve the performance of VASP for DFT.       |
|     The default, NCORE=1 might be grossly inefficient on modern             |
|     multi-core architectures or massively parallel machines. Do your        |
|     Unfortunately you need to use the default for GW and RPA                |
|     calculations (for HF NCORE is supported but not extensively tested      |
|     yet).                                                                   |

 POTCAR:    PAW_PBE B 06Sep2000
   VRHFIN =B: s2p1

   TITEL  = PAW_PBE B 06Sep2000
   POMASS =   10.811; ZVAL   =    3.000    mass and valenz
   ENMAX  =  318.614; ENMIN  =  238.960 eV

 POTCAR:    PAW_PBE Mo_sv 02Feb2006
   VRHFIN =Mo: 4p5s4d

   TITEL  = PAW_PBE Mo_sv 02Feb2006
   POMASS =   95.940; ZVAL   =   14.000    mass and valenz
   ENMAX  =  242.676; ENMIN  =  182.007 eV

 POTCAR:    PAW_PBE Si 05Jan2001
   VRHFIN =Si: s2p2

   TITEL  = PAW_PBE Si 05Jan2001
   POMASS =   28.085; ZVAL   =    4.000    mass and valenz
   ENMAX  =  245.345; ENMIN  =  184.009 eV

  PAW_PBE B 06Sep2000                   :
  PAW_PBE Mo_sv 02Feb2006               :
  PAW_PBE Si 05Jan2001                  :

 POSCAR: EA1
  positions in direct lattice

 METAGGA = R2SCA    LMAXTAU =  6    LMIXTAU =  F

 ion  position               nearest neighbor table
   1  0.250  0.250  0.000-   4 1.94   8 1.94   6 1.96   3 1.96   5 1.96   7 1.96
   2  0.750  0.750  0.000-   4 1.94   8 1.94   6 1.96   3 1.96   7 1.96   5 1.96
   3  0.000  0.500  0.000-   1 1.96   2 1.96   9 2.69   8 2.76   4 2.76  10 2.76  10 2.76   4 2.76
                             8 2.76   5 2.78   7 2.78   7 2.78   5 2.78   9 2.84
   4  0.000  0.000  0.000-   1 1.94   2 1.94   9 2.70   6 2.76   7 2.76   3 2.76   7 2.76   3 2.76
                             6 2.76   5 2.76   5 2.76  10 2.78  10 2.78   9 2.86
   5  0.500  0.500  0.500-   2 1.96   1 1.96  10 2.76   8 2.76   8 2.76  10 2.76   4 2.76   4 2.76
                             9 2.77   9 2.77   6 2.78   3 2.78   3 2.78   6 2.78
   6  0.500  0.000  0.000-   1 1.96   2 1.96   9 2.69   8 2.76   4 2.76   8 2.76   4 2.76  10 2.76
                            10 2.76   5 2.78   5 2.78   7 2.78   7 2.78   9 2.84
   7  0.000  0.000  0.500-   1 1.96   2 1.96  10 2.76   4 2.76   4 2.76  10 2.76   8 2.76   8 2.76
                             9 2.77   9 2.77   3 2.78   3 2.78   6 2.78   6 2.78
   8  0.500  0.500  0.000-   1 1.94   2 1.94   9 2.70   5 2.76   6 2.76   3 2.76   5 2.76   6 2.76
                             3 2.76   7 2.76   7 2.76  10 2.78  10 2.78   9 2.86
   9  0.486  0.986  0.472-   6 2.69   3 2.69   4 2.70   8 2.70   7 2.77   5 2.77   7 2.77   5 2.77
                             6 2.84   3 2.84   4 2.86   8 2.86
  10  0.000  0.500  0.500-   3 2.76   5 2.76   7 2.76   3 2.76   7 2.76   5 2.76   6 2.76   6 2.76
                             4 2.78   4 2.78   8 2.78   8 2.78

  LATTYP: Found a body centered tetragonal cell.
 ALAT       =     5.5565077101
 C/A-ratio  =     1.3985410392

  Lattice vectors:

 A1 = (   4.8031299343,   0.0000000000,  -2.7321069662)
 A2 = (  -1.6249033679,   4.5199276776,  -2.7321069662)
 A3 = (   0.0000000000,   0.0000000000,   5.5258000000)

Analysis of symmetry for initial positions (statically):
 Subroutine PRICEL returns:
 Original cell was already a primitive cell.

 Routine SETGRP: Setting up the symmetry group for a
 body centered tetragonal supercell.

 Subroutine GETGRP returns: Found  4 space group operations
 (whereof  2 operations were pure point group operations)
 out of a pool of 16 trial point group operations.

The static configuration has the point symmetry C_1h.
 The point group associated with its full space group is C_2v.

Analysis of symmetry for dynamics (positions and initial velocities):
 Subroutine PRICEL returns:
 Original cell was already a primitive cell.

 Routine SETGRP: Setting up the symmetry group for a
 body centered tetragonal supercell.

 Subroutine GETGRP returns: Found  4 space group operations
 (whereof  2 operations were pure point group operations)
 out of a pool of 16 trial point group operations.

The dynamic configuration has the point symmetry C_1h.
 The point group associated with its full space group is C_2v.

 Subroutine INISYM returns: Found  4 space group operations
 (whereof  2 operations are pure point group operations),
 and found     1 'primitive' translations

                                     Primitive cell

  volume of cell :     119.9640

  direct lattice vectors                    reciprocal lattice vectors
     4.803129934  0.000000000 -2.732106966     0.208197574  0.074846538  0.000000000
    -1.624903368  4.519927678 -2.732106966     0.000000000  0.221242478  0.000000000
     0.000000000  0.000000000  5.525800000     0.102938587  0.146394525  0.180969271

  length of vectors
     5.525800000  5.525800000  5.525800000     0.221242478  0.221242478  0.254514413

  position of ions in fractional coordinates (direct lattice)
     0.250000000  0.250000000  0.000000000
     0.750000000  0.750000000  0.000000000
     0.000000000  0.500000000  1.000000000
     0.000000000  0.000000000  0.000000000
     0.500000000  0.500000000  0.500000000
     0.500000000  0.000000000  0.000000000
     0.000000000  0.000000000  0.500000000
     0.500000000  0.500000000  0.000000000
     0.486130000  0.986130000  0.472260000
     0.000000000  0.500000000  0.500000000

  ion indices of the primitive-cell ions
   primitive index   ion index
                 1           1
                 2           2
                 3           3
                 4           4
                 5           5
                 6           6
                 7           7
                 8           8
                 9           9
                10          10

 KPOINTS: EA

Automatic generation of k-mesh.
 Grid dimensions read from file:
 generate k-points for:    8    8    9

 Generating k-lattice:

  Cartesian coordinates                     Fractional coordinates (reciprocal lattice)
     0.026024697  0.009355817  0.000000000     0.125000000  0.000000000  0.000000000
     0.000000000  0.027655310  0.000000000     0.000000000  0.125000000  0.000000000
     0.011437621  0.016266058  0.020107697     0.000000000 -0.000000000  0.111111111

  Length of vectors
     0.027655310  0.027655310  0.028279379

  Shift w.r.t. Gamma in fractional coordinates (k-lattice)
     0.000000000  0.000000000  0.000000000

 WARNING: IBZKPT: internal override: KBLOWUP is changed to .FALSE.
      ... skipping the blow-up phase ...

 Subroutine IBZKPT returns following result:

 Found    165 irreducible k-points:

 Following reciprocal coordinates:
            Coordinates               Weight
  0.000000  0.000000  0.000000      1.000000
  0.125000 -0.000000  0.000000      4.000000
  0.250000 -0.000000  0.000000      4.000000
  0.375000 -0.000000  0.000000      4.000000
  0.500000 -0.000000  0.000000      2.000000
  0.125000  0.125000  0.000000      2.000000
  0.250000  0.125000  0.000000      4.000000
  0.375000  0.125000  0.000000      4.000000
  0.500000  0.125000  0.000000      4.000000
 -0.375000  0.125000  0.000000      4.000000
 -0.250000  0.125000  0.000000      4.000000
 -0.125000  0.125000  0.000000      2.000000
  0.250000  0.250000  0.000000      2.000000
  0.375000  0.250000  0.000000      4.000000
  0.500000  0.250000  0.000000      4.000000
 -0.375000  0.250000  0.000000      4.000000
 -0.250000  0.250000  0.000000      2.000000
  0.375000  0.375000  0.000000      2.000000
  0.500000  0.375000  0.000000      4.000000
 -0.375000  0.375000  0.000000      2.000000
  0.500000  0.500000  0.000000      1.000000
 -0.000000 -0.000000  0.111111      2.000000
  0.125000 -0.000000  0.111111      4.000000
  0.250000 -0.000000  0.111111      4.000000
  0.375000 -0.000000  0.111111      4.000000
  0.500000 -0.000000  0.111111      4.000000
 -0.375000 -0.000000  0.111111      4.000000
 -0.250000  0.000000  0.111111      4.000000
 -0.125000  0.000000  0.111111      4.000000
  0.125000  0.125000  0.111111      2.000000
  0.250000  0.125000  0.111111      4.000000
  0.375000  0.125000  0.111111      4.000000
  0.500000  0.125000  0.111111      4.000000
 -0.375000  0.125000  0.111111      4.000000
 -0.250000  0.125000  0.111111      4.000000
 -0.125000  0.125000  0.111111      4.000000
  0.250000  0.250000  0.111111      2.000000
  0.375000  0.250000  0.111111      4.000000
  0.500000  0.250000  0.111111      4.000000
 -0.375000  0.250000  0.111111      4.000000
 -0.250000  0.250000  0.111111      4.000000
 -0.125000  0.250000  0.111111      4.000000
  0.375000  0.375000  0.111111      2.000000
  0.500000  0.375000  0.111111      4.000000
 -0.375000  0.375000  0.111111      4.000000
 -0.250000  0.375000  0.111111      4.000000
 -0.125000  0.375000  0.111111      4.000000
  0.500000  0.500000  0.111111      2.000000
 -0.375000  0.500000  0.111111      4.000000
 -0.250000  0.500000  0.111111      4.000000
 -0.125000  0.500000  0.111111      4.000000
 -0.375000 -0.375000  0.111111      2.000000
 -0.250000 -0.375000  0.111111      4.000000
 -0.125000 -0.375000  0.111111      4.000000
 -0.250000 -0.250000  0.111111      2.000000
 -0.125000 -0.250000  0.111111      4.000000
 -0.125000 -0.125000  0.111111      2.000000
  0.000000 -0.000000  0.222222      2.000000
  0.125000 -0.000000  0.222222      4.000000
  0.250000 -0.000000  0.222222      4.000000
[...]
  0.375000  0.375000  0.444444      2.000000
  0.500000  0.375000  0.444444      4.000000
 -0.375000  0.375000  0.444444      4.000000
 -0.250000  0.375000  0.444444      4.000000
 -0.125000  0.375000  0.444444      4.000000
  0.500000  0.500000  0.444444      2.000000
 -0.375000  0.500000  0.444444      4.000000
 -0.250000  0.500000  0.444444      4.000000
 -0.125000  0.500000  0.444444      4.000000
 -0.375000 -0.375000  0.444444      2.000000
 -0.250000 -0.375000  0.444444      4.000000
 -0.125000 -0.375000  0.444444      4.000000
[...]
  -0.25000000  0.25000000  0.00000000       0.003
   0.37500000  0.37500000  0.00000000       0.003
   0.50000000  0.37500000  0.00000000       0.007
  -0.37500000  0.37500000  0.00000000       0.003
   0.50000000  0.50000000  0.00000000       0.002
  -0.00000000 -0.00000000  0.11111111       0.003
   0.12500000 -0.00000000  0.11111111       0.007
   0.25000000 -0.00000000  0.11111111       0.007
   0.37500000 -0.00000000  0.11111111       0.007
   0.50000000 -0.00000000  0.11111111       0.007
  -0.37500000 -0.00000000  0.11111111       0.007
  -0.25000000  0.00000000  0.11111111       0.007
  -0.12500000  0.00000000  0.11111111       0.007
   0.12500000  0.12500000  0.11111111       0.003
   0.25000000  0.12500000  0.11111111       0.007
   0.37500000  0.12500000  0.11111111       0.007
   0.50000000  0.12500000  0.11111111       0.007
  -0.37500000  0.12500000  0.11111111       0.007
  -0.25000000  0.12500000  0.11111111       0.007
  -0.12500000  0.12500000  0.11111111       0.007
   0.25000000  0.25000000  0.11111111       0.003
   0.37500000  0.25000000  0.11111111       0.007
   0.50000000  0.25000000  0.11111111       0.007
  -0.37500000  0.25000000  0.11111111       0.007
  -0.25000000  0.25000000  0.11111111       0.007
  -0.12500000  0.25000000  0.11111111       0.007
   0.37500000  0.37500000  0.11111111       0.003
   0.50000000  0.37500000  0.11111111       0.007
  -0.37500000  0.37500000  0.11111111       0.007
  -0.25000000  0.37500000  0.11111111       0.007
  -0.12500000  0.37500000  0.11111111       0.007
   0.50000000  0.50000000  0.11111111       0.003
  -0.37500000  0.50000000  0.11111111       0.007
  -0.25000000  0.50000000  0.11111111       0.007
  -0.12500000  0.50000000  0.11111111       0.007
  -0.37500000 -0.37500000  0.11111111       0.003
  -0.25000000 -0.37500000  0.11111111       0.007
  -0.12500000 -0.37500000  0.11111111       0.007
  -0.25000000 -0.25000000  0.11111111       0.003
  -0.12500000 -0.25000000  0.11111111       0.007
  -0.12500000 -0.12500000  0.11111111       0.003
   0.00000000 -0.00000000  0.22222222       0.003
   0.12500000 -0.00000000  0.22222222       0.007
   0.25000000 -0.00000000  0.22222222       0.007
[...]
   0.37500000  0.37500000  0.44444444       0.003
   0.50000000  0.37500000  0.44444444       0.007
  -0.37500000  0.37500000  0.44444444       0.007
  -0.25000000  0.37500000  0.44444444       0.007
  -0.12500000  0.37500000  0.44444444       0.007
   0.50000000  0.50000000  0.44444444       0.003
  -0.37500000  0.50000000  0.44444444       0.007
  -0.25000000  0.50000000  0.44444444       0.007
  -0.12500000  0.50000000  0.44444444       0.007
  -0.37500000 -0.37500000  0.44444444       0.003
  -0.25000000 -0.37500000  0.44444444       0.007
  -0.12500000 -0.37500000  0.44444444       0.007
  -0.25000000 -0.25000000  0.44444444       0.003
  -0.12500000 -0.25000000  0.44444444       0.007
  -0.12500000 -0.12500000  0.44444444       0.003

 position of ions in fractional coordinates (direct lattice)
   0.25000000  0.25000000  0.00000000
   0.75000000  0.75000000  0.00000000
   0.00000000  0.50000000  0.00000000
   0.00000000  0.00000000  0.00000000
   0.50000000  0.50000000  0.50000000
   0.50000000  0.00000000  0.00000000
   0.00000000  0.00000000  0.50000000
   0.50000000  0.50000000  0.00000000
   0.48613000  0.98613000  0.47226000
   0.00000000  0.50000000  0.50000000

 position of ions in cartesian coordinates  (Angst):
   0.79455664  1.12998192 -1.36605348
   2.38366992  3.38994576 -4.09816045
  -0.81245168  2.25996384 -1.36605348
   0.00000000  0.00000000  0.00000000
   1.58911328  2.25996384  0.03079303
   2.40156497  0.00000000 -1.36605348
   0.00000000  0.00000000  2.76290000
   1.58911328  2.25996384 -2.73210697
   0.73257960  4.45723628 -1.41275749
  -0.81245168  2.25996384  1.39684652

 k-point   1 :   0.0000 0.0000 0.0000  plane waves:    3967
 k-point   2 :   0.1250-0.0000 0.0000  plane waves:    3974
 k-point   3 :   0.2500-0.0000 0.0000  plane waves:    3986
 k-point   4 :   0.3750-0.0000 0.0000  plane waves:    3992
 k-point   5 :   0.5000-0.0000 0.0000  plane waves:    4010
 k-point   6 :   0.1250 0.1250 0.0000  plane waves:    3988
 k-point   7 :   0.2500 0.1250 0.0000  plane waves:    3993
 k-point   8 :   0.3750 0.1250 0.0000  plane waves:    3997
 k-point   9 :   0.5000 0.1250 0.0000  plane waves:    3995
 k-point  10 :  -0.3750 0.1250 0.0000  plane waves:    3998
 k-point  11 :  -0.2500 0.1250 0.0000  plane waves:    3986
 k-point  12 :  -0.1250 0.1250 0.0000  plane waves:    3975
 k-point  13 :   0.2500 0.2500 0.0000  plane waves:    3996
 k-point  14 :   0.3750 0.2500 0.0000  plane waves:    4002
 k-point  15 :   0.5000 0.2500 0.0000  plane waves:    4007
 k-point  16 :  -0.3750 0.2500 0.0000  plane waves:    4013
 k-point  17 :  -0.2500 0.2500 0.0000  plane waves:    3996
 k-point  18 :   0.3750 0.3750 0.0000  plane waves:    4011
 k-point  19 :   0.5000 0.3750 0.0000  plane waves:    4011
 k-point  20 :  -0.3750 0.3750 0.0000  plane waves:    4020
 k-point  21 :   0.5000 0.5000 0.0000  plane waves:    4004
 k-point  22 :  -0.0000-0.0000 0.1111  plane waves:    3967
 k-point  23 :   0.1250-0.0000 0.1111  plane waves:    3986
 k-point  24 :   0.2500-0.0000 0.1111  plane waves:    3999
 k-point  25 :   0.3750-0.0000 0.1111  plane waves:    4002
 k-point  26 :   0.5000-0.0000 0.1111  plane waves:    3995
 k-point  27 :  -0.3750-0.0000 0.1111  plane waves:    3990
 k-point  28 :  -0.2500 0.0000 0.1111  plane waves:    3989
 k-point  29 :  -0.1250 0.0000 0.1111  plane waves:    3972
 k-point  30 :   0.1250 0.1250 0.1111  plane waves:    3993
 k-point  31 :   0.2500 0.1250 0.1111  plane waves:    3998
 k-point  32 :   0.3750 0.1250 0.1111  plane waves:    3995
 k-point  33 :   0.5000 0.1250 0.1111  plane waves:    4003
 k-point  34 :  -0.3750 0.1250 0.1111  plane waves:    3994
 k-point  35 :  -0.2500 0.1250 0.1111  plane waves:    3988
 k-point  36 :  -0.1250 0.1250 0.1111  plane waves:    3995
 k-point  37 :   0.2500 0.2500 0.1111  plane waves:    4007
 k-point  38 :   0.3750 0.2500 0.1111  plane waves:    4014
 k-point  39 :   0.5000 0.2500 0.1111  plane waves:    4005
 k-point  40 :  -0.3750 0.2500 0.1111  plane waves:    4011
 k-point  41 :  -0.2500 0.2500 0.1111  plane waves:    4009
 k-point  42 :  -0.1250 0.2500 0.1111  plane waves:    4001
 k-point  43 :   0.3750 0.3750 0.1111  plane waves:    4016
 k-point  44 :   0.5000 0.3750 0.1111  plane waves:    4013
 k-point  45 :  -0.3750 0.3750 0.1111  plane waves:    4008
 k-point  46 :  -0.2500 0.3750 0.1111  plane waves:    4013
 k-point  47 :  -0.1250 0.3750 0.1111  plane waves:    4005
 k-point  48 :   0.5000 0.5000 0.1111  plane waves:    4012
 k-point  49 :  -0.3750 0.5000 0.1111  plane waves:    4014
 k-point  50 :  -0.2500 0.5000 0.1111  plane waves:    4008
 k-point  51 :  -0.1250 0.5000 0.1111  plane waves:    4011
 k-point  52 :  -0.3750-0.3750 0.1111  plane waves:    4019
 k-point  53 :  -0.2500-0.3750 0.1111  plane waves:    4007
 k-point  54 :  -0.1250-0.3750 0.1111  plane waves:    3991
 k-point  55 :  -0.2500-0.2500 0.1111  plane waves:    4007
 k-point  56 :  -0.1250-0.2500 0.1111  plane waves:    3997
 k-point  57 :  -0.1250-0.1250 0.1111  plane waves:    3965
 k-point  58 :   0.0000-0.0000 0.2222  plane waves:    3992
 k-point  59 :   0.1250-0.0000 0.2222  plane waves:    4008
 k-point  60 :   0.2500-0.0000 0.2222  plane waves:    4007
[...]
 k-point 151 :   0.3750 0.3750 0.4444  plane waves:    4019
 k-point 152 :   0.5000 0.3750 0.4444  plane waves:    4014
 k-point 153 :  -0.3750 0.3750 0.4444  plane waves:    4005
 k-point 154 :  -0.2500 0.3750 0.4444  plane waves:    4016
 k-point 155 :  -0.1250 0.3750 0.4444  plane waves:    4016
 k-point 156 :   0.5000 0.5000 0.4444  plane waves:    4004
 k-point 157 :  -0.3750 0.5000 0.4444  plane waves:    4004
 k-point 158 :  -0.2500 0.5000 0.4444  plane waves:    4016
 k-point 159 :  -0.1250 0.5000 0.4444  plane waves:    4004
 k-point 160 :  -0.3750-0.3750 0.4444  plane waves:    4016
 k-point 161 :  -0.2500-0.3750 0.4444  plane waves:    4009
 k-point 162 :  -0.1250-0.3750 0.4444  plane waves:    3999
 k-point 163 :  -0.2500-0.2500 0.4444  plane waves:    4003
 k-point 164 :  -0.1250-0.2500 0.4444  plane waves:    3998
 k-point 165 :  -0.1250-0.1250 0.4444  plane waves:    4006

 maximum and minimum number of plane-waves per node :      2035     1952

 maximum number of plane-waves:      4027
 maximum index in each direction:
   IXMAX=   11   IYMAX=   11   IZMAX=   11
   IXMIN=  -11   IYMIN=  -11   IZMIN=  -11

 parallel 3D FFT for wavefunctions:
    minimum data exchange during FFTs selected (reduces bandwidth)
 parallel 3D FFT for charge:
    minimum data exchange during FFTs selected (reduces bandwidth)

 Broyden mixing: mesh for mixing (old mesh)
   NGX = 23   NGY = 23   NGZ = 23
  (NGX  = 96   NGY  = 96   NGZ  = 96)
  gives a total of  12167 points

 initial charge density was supplied:
 charge density of overlapping atoms calculated
 number of electron      98.0000000 magnetization
 keeping initial charge density in first step

 Maximum index for augmentation-charges        26009 (set IRDMAX)

 First call to EWALD:  gamma=   0.359
 Maximum number of real-space cells 3x 3x 3
 Maximum number of reciprocal cells 3x 3x 3

--------------------------------------- Iteration      1(   1)  ---------------------------------------

 eigenvalue-minimisations  : 19800
 total energy-change (2. order) : 0.1094172E+04  (-0.6748283E+04)
 number of electron      98.0000000 magnetization
 augmentation part       98.0000000 magnetization

 Free energy of the ion-electron system (eV)
  alpha Z        PSCENC =       696.41256531
  Ewald energy   TEWEN  =     -9796.50703054
  -Hartree energ DENC   =     -2246.85199570
  -exchange      EXHF   =         0.00000000
  -V(xc)+E(xc)   XCENC  =       475.24991215
  PAW double counting   =      9166.97638771    -9126.13493418
  entropy T*S    EENTRO =        -0.00055329
  eigenvalues    EBANDS =       402.85988367
  atomic energy  EATOM  =     11522.16744521
  free energy    TOTEN  =      1094.17168036 eV

  energy without entropy =     1094.17223365  energy(sigma->0) =     1094.17195700

[...]

 eigenvalue-minimisations  : 21792
 total energy-change (2. order) :-0.1274045E+04  (-0.1238648E+04)
 number of electron      98.0000000 magnetization
 augmentation part       98.0000000 magnetization

[...]

 eigenvalue-minimisations  :     0
 total energy-change (2. order) : 0.7478709E+02  (-0.2165073E+02)
 number of electron      98.0000000 magnetization
 augmentation part       14.9796437 magnetization

[...]

--------------------------------------- Iteration      1(  35)  ---------------------------------------

 eigenvalue-minimisations  :     0
 total energy-change (2. order) :-0.6566552E-09  (-0.1079297E-09)
 number of electron      98.0000001 magnetization
 augmentation part       14.4078015 magnetization

 Free energy of the ion-electron system (eV)
  alpha Z        PSCENC =       696.41256531
  Ewald energy   TEWEN  =     -9796.50703054
  -Hartree energ DENC   =     -2131.51965475
  -exchange      EXHF   =         0.00000000
  -V(xc)+E(xc)   XCENC  =       485.40048273
  PAW double counting   =     14241.78052417   -14223.24953482
  entropy T*S    EENTRO =        -0.00147378
  eigenvalues    EBANDS =      -977.12456741
  atomic energy  EATOM  =     11522.16744521
  free energy    TOTEN  =      -182.64124388 eV

  energy without entropy =     -182.63977010  energy(sigma->0) =     -182.64050699

  average scaling for gradient   0.8507

 average (electrostatic) potential at core
  the test charge radii are     0.7672  1.0818  0.9892
  (the norm of the test charge is              1.0000)
       1 -20.2132       2 -20.2132       3 -73.2064       4 -73.1973       5 -73.2183
       6 -73.2064       7 -73.2183       8 -73.1973       9 -79.4031      10 -79.4095

 E-fermi :  13.3561     XC(G=0): -14.5513     alpha+bet :-21.4759

 Fermi energy:        13.3560761585

 k-point     1 :       0.0000    0.0000    0.0000
  band No.  band energies     occupation
      1     -49.6281      2.00000
      2     -49.3980      2.00000
      3     -49.3908      2.00000
      4     -49.3875      2.00000
      5     -49.2810      2.00000
      6     -49.2680      2.00000
      7     -24.3798      2.00000
      8     -23.7127      2.00000
      9     -23.6932      2.00000
     10     -23.6927      2.00000
     11     -23.3941      2.00000
     12     -23.3910      2.00000
     13     -23.3585      2.00000
     14     -22.7277      2.00000
     15     -22.7195      2.00000
     16     -22.7083      2.00000
     17     -22.5465      2.00000
     18     -22.5240      2.00000
     19     -22.4265      2.00000
     20     -22.4153      2.00000
     21     -22.4123      2.00000
     22     -22.3347      2.00000
     23     -22.3197      2.00000
     24     -22.3175      2.00000
     25       1.1955      2.00000
     26       2.4933      2.00000
     27       3.4406      2.00000
     28       5.4480      2.00000
     29       5.4505      2.00000
     30       5.5130      2.00000
     31       8.2950      2.00000
     32       8.2998      2.00000
     33       8.3014      2.00000
     34       8.5739      2.00000
     35       8.6501      2.00000
     36       8.9591      2.00000
     37      10.3081      2.00000
     38      10.3365      2.00000
     39      10.3566      2.00000
     40      11.4902      2.00000
     41      11.5672      2.00000
     42      11.6322      2.00000
     43      11.6526      2.00000
     44      11.7455      2.00000
     45      11.7921      2.00000
     46      11.8136      2.00000
     47      11.8548      2.00000
     48      12.0434      2.00000
     49      13.5489      0.00000
     50      13.5504      0.00000
     51      13.6365      0.00000
     52      14.5597      0.00000
     53      14.6932      0.00000
     54      14.8324      0.00000
     55      14.9473      0.00000
     56      15.3835      0.00000
     57      15.3921      0.00000
     58      15.5611      0.00000
     59      16.5385      0.00000
     60      17.3171      0.00000

[...]

 k-point   165 :      -0.1250   -0.1250    0.4444
  band No.  band energies     occupation
      1     -49.5498      2.00000
      2     -49.4342      2.00000
      3     -49.3889      2.00000
      4     -49.3557      2.00000
      5     -49.3519      2.00000
      6     -49.2775      2.00000
      7     -24.0142      2.00000
      8     -23.6513      2.00000
      9     -23.5342      2.00000
     10     -23.3609      2.00000
     11     -23.3230      2.00000
     12     -23.1325      2.00000
     13     -23.1228      2.00000
     14     -22.9749      2.00000
     15     -22.9363      2.00000
     16     -22.7918      2.00000
     17     -22.7394      2.00000
     18     -22.6441      2.00000
     19     -22.6161      2.00000
     20     -22.5741      2.00000
     21     -22.5207      2.00000
     22     -22.4913      2.00000
     23     -22.4806      2.00000
     24     -22.3595      2.00000
     25       2.5766      2.00000
     26       3.5139      2.00000
     27       4.0769      2.00000
     28       4.9142      2.00000
     29       6.1444      2.00000
     30       6.9200      2.00000
     31       7.4114      2.00000
     32       8.1157      2.00000
     33       8.3948      2.00000
     34       8.4112      2.00000
     35       8.5051      2.00000
     36       8.9312      2.00000
     37       9.0853      2.00000
     38       9.1758      2.00000
     39       9.3172      2.00000
     40       9.5927      2.00000
     41      10.1890      2.00000
     42      10.5963      2.00000
     43      11.2951      2.00000
     44      11.3901      2.00000
     45      12.1828      2.00000
     46      12.1864      2.00000
     47      12.2442      2.00000
     48      12.6592      2.00000
     49      12.8803      2.00000
     50      13.4063      0.00038
     51      13.7681      0.00000
     52      14.0350      0.00000
     53      14.5560      0.00000
     54      14.5887      0.00000
     55      14.9386      0.00000
     56      15.5594      0.00000
     57      15.9411      0.00000
     58      16.8579      0.00000
     59      17.3038      0.00000
     60      17.4851      0.00000

 soft charge-density along one line, spin component           1
         0         1         2         3         4         5         6         7         8         9
 total charge-density along one line

------------------------ aborting loop because EDIFF is reached ----------------------------------------

  FREE ENERGIE OF THE ION-ELECTRON SYSTEM (eV)
  free  energy   TOTEN  =      -182.64124388 eV

  energy  without entropy=     -182.63977010  energy(sigma->0) =     -182.64050699

 writing wavefunctions