 vasp.6.2.0 18Jan21 (build Jan 05 2022 15:41:44) complex

 executed on             LinuxIFC date 2025.05.07  15:40:57

 INCAR:
   SYSTEM = routine with relax: pwdword
   ICHARG = 2
   NPAR = 6
   KPAR = 2
   NCORE = 2
   ADDGRID = T
   PREC = Acc
   ENCUT = 600
   METAGGA = R2SCAN
   LASPH = .TRUE.
   LMIXTAU = .FALSE.
   ALGO = A
   EDIFF = 1E-9
   NELM = 100
   NELMIN = 6
   IALGO = 38
   LREAL = F
   NSW = 0
   ISIF = -1
   ISMEAR = 0
   SIGMA = 0.02

 POTCAR:    PAW_PBE B 06Sep2000
 POTCAR:    PAW_PBE Mo_sv 02Feb2006
 POTCAR:    PAW_PBE Si 05Jan2001
|           W    W    AA    RRRRR   N    N  II  N    N   GGGG   !!!           |
|           W    W   A  A   R    R  NN   N  II  NN   N  G    G  !!!           |
|           W    W  A    A  R    R  N N  N  II  N N  N  G       !!!           |
|           W WW W  AAAAAA  RRRRR   N  N N  II  N  N N  G  GGG   !            |
|           WW  WW  A    A  R   R   N   NN  II  N   NN  G    G                |
|           W    W  A    A  R    R  N    N  II  N    N   GGGG   !!!           |
|     For optimal performance we recommend to set                             |
|       NCORE = 2 up to number-of-cores-per-socket                            |
|     This setting can greatly improve the performance of VASP for DFT.       |
|     The default, NCORE=1 might be grossly inefficient on modern             |
|     multi-core architectures or massively parallel machines. Do your        |
|     Unfortunately you need to use the default for GW and RPA                |
|     calculations (for HF NCORE is supported but not extensively tested      |
|     yet).                                                                   |

 POTCAR:    PAW_PBE B 06Sep2000
   VRHFIN =B: s2p1

   TITEL  = PAW_PBE B 06Sep2000
   POMASS =   10.811; ZVAL   =    3.000    mass and valenz
   ENMAX  =  318.614; ENMIN  =  238.960 eV

 POTCAR:    PAW_PBE Mo_sv 02Feb2006
   VRHFIN =Mo: 4p5s4d

   TITEL  = PAW_PBE Mo_sv 02Feb2006
   POMASS =   95.940; ZVAL   =   14.000    mass and valenz
   ENMAX  =  242.676; ENMIN  =  182.007 eV

 POTCAR:    PAW_PBE Si 05Jan2001
   VRHFIN =Si: s2p2

   TITEL  = PAW_PBE Si 05Jan2001
   POMASS =   28.085; ZVAL   =    4.000    mass and valenz
   ENMAX  =  245.345; ENMIN  =  184.009 eV

  PAW_PBE B 06Sep2000                   :
  PAW_PBE Mo_sv 02Feb2006               :
  PAW_PBE Si 05Jan2001                  :

 POSCAR: EA59
  positions in direct lattice

 METAGGA = R2SCA    LMAXTAU =  6    LMIXTAU =  F

 ion  position               nearest neighbor table
   1  0.500  0.000  0.500-   4 1.91   6 1.91   9 2.00  10 2.00   7 2.02   8 2.02
   2  0.000  0.500  0.500-   7 1.91   8 1.91   9 2.00  10 2.00   6 2.02   4 2.02
   3  0.250  0.250  0.000-   9 2.78  10 2.78   9 2.78  10 2.78   8 2.80   8 2.80   4 2.80   6 2.80
                             7 2.80   7 2.80   4 2.80   6 2.80
   4  0.743  0.243  0.985-   1 1.91   2 2.02   9 2.76  10 2.76   8 2.78   7 2.78   8 2.78   7 2.78
                             3 2.80   5 2.80   3 2.80   5 2.80   9 2.84  10 2.84
   5  0.750  0.750  0.000-   9 2.78  10 2.78  10 2.78   9 2.78   7 2.80   7 2.80   4 2.80   6 2.80
                             8 2.80   8 2.80   4 2.80   6 2.80
   6  0.257  0.757  0.015-   1 1.91   2 2.02  10 2.76   9 2.76   7 2.78   8 2.78   7 2.78   8 2.78
                             5 2.80   3 2.80   5 2.80   3 2.80  10 2.84   9 2.84
   7  0.243  0.257  0.500-   2 1.91   1 2.02   9 2.76  10 2.76   6 2.78   4 2.78   6 2.78   4 2.78
                             5 2.80   5 2.80   3 2.80   3 2.80  10 2.84   9 2.84
   8  0.757  0.743  0.500-   2 1.91   1 2.02   9 2.76  10 2.76   6 2.78   4 2.78   4 2.78   6 2.78
                             3 2.80   3 2.80   5 2.80   5 2.80   9 2.84  10 2.84
   9  0.250  0.750  0.500-   1 2.00   2 2.00   4 2.76   7 2.76   8 2.76   6 2.76   5 2.78   3 2.78
                             3 2.78   5 2.78   4 2.84   6 2.84   8 2.84   7 2.84
  10  0.750  0.250  0.500-   1 2.00   2 2.00   6 2.76   7 2.76   8 2.76   4 2.76   5 2.78   3 2.78
                             5 2.78   3 2.78   6 2.84   4 2.84   7 2.84   8 2.84

  LATTYP: Found a body centered tetragonal cell.
 ALAT       =     5.5613792902
 C/A-ratio  =     1.4350505501

  Lattice vectors:

 A1 = (   4.8280216282,   0.0000000000,  -2.8422198028)
 A2 = (  -1.5781108295,   4.5628235833,  -2.8422198028)
 A3 = (   0.0000000000,   0.0000000000,   5.6025000000)

Analysis of symmetry for initial positions (statically):
 Subroutine PRICEL returns:
 Original cell was already a primitive cell.

 Routine SETGRP: Setting up the symmetry group for a
 body centered tetragonal supercell.

 Subroutine GETGRP returns: Found 16 space group operations
 (whereof  8 operations were pure point group operations)
 out of a pool of 16 trial point group operations.

The static configuration has the point symmetry C_4h.
 The point group associated with its full space group is D_4h.

Analysis of symmetry for dynamics (positions and initial velocities):
 Subroutine PRICEL returns:
 Original cell was already a primitive cell.

 Routine SETGRP: Setting up the symmetry group for a
 body centered tetragonal supercell.

 Subroutine GETGRP returns: Found 16 space group operations
 (whereof  8 operations were pure point group operations)
 out of a pool of 16 trial point group operations.

The dynamic configuration has the point symmetry C_4h.
 The point group associated with its full space group is D_4h.

 Subroutine INISYM returns: Found 16 space group operations
 (whereof  8 operations are pure point group operations),
 and found     1 'primitive' translations

                                     Primitive cell

  volume of cell :     123.4198

  direct lattice vectors                    reciprocal lattice vectors
     4.828021628  0.000000000 -2.842219803     0.207124176  0.071636542  0.000000000
    -1.578110830  4.562823583 -2.842219803     0.000000000  0.219162539  0.000000000
     0.000000000  0.000000000  5.602500000     0.105076740  0.147526088  0.178491745

  length of vectors
     5.602500000  5.602500000  5.602500000     0.219162539  0.219162539  0.254291901

  position of ions in fractional coordinates (direct lattice)
     0.500000000  0.000000000  0.500000000
     0.000000000  0.500000000  0.500000000
     0.250000000  0.250000000  1.000000000
     0.742650000  0.242650000  0.985300000
     0.750000000  0.750000000  1.000000000
     0.257350000  0.757350000  0.014700000
     0.242650000  0.257350000  0.500000000
     0.757350000  0.742650000  0.500000000
     0.250000000  0.750000000  0.500000000
     0.750000000  0.250000000  0.500000000

  ion indices of the primitive-cell ions
   primitive index   ion index
                 1           1
                 2           2
                 3           3
                 4           4
                 5           5
                 6           6
                 7           7
                 8           8
                 9           9
                10          10

 KPOINTS: EA

Automatic generation of k-mesh.
 Grid dimensions read from file:
 generate k-points for:    8    8    9

 Generating k-lattice:

  Cartesian coordinates                     Fractional coordinates (reciprocal lattice)
     0.025890522  0.008954568  0.000000000     0.125000000  0.000000000  0.000000000
     0.000000000  0.027395317  0.000000000     0.000000000  0.125000000  0.000000000
     0.011675193  0.016391788  0.019832416    -0.000000000 -0.000000000  0.111111111

  Length of vectors
     0.027395317  0.027395317  0.028254656

  Shift w.r.t. Gamma in fractional coordinates (k-lattice)
     0.000000000  0.000000000  0.000000000

 WARNING: IBZKPT: internal override: KBLOWUP is changed to .FALSE.
      ... skipping the blow-up phase ...

 Subroutine IBZKPT returns following result:

 Found    165 irreducible k-points:

 Following reciprocal coordinates:
            Coordinates               Weight
  0.000000  0.000000  0.000000      1.000000
  0.125000 -0.000000  0.000000      4.000000
  0.250000 -0.000000  0.000000      4.000000
  0.375000  0.000000  0.000000      4.000000
  0.500000 -0.000000  0.000000      2.000000
  0.125000  0.125000  0.000000      2.000000
  0.250000  0.125000  0.000000      4.000000
  0.375000  0.125000  0.000000      4.000000
  0.500000  0.125000  0.000000      4.000000
 -0.375000  0.125000  0.000000      4.000000
 -0.250000  0.125000  0.000000      4.000000
 -0.125000  0.125000  0.000000      2.000000
  0.250000  0.250000  0.000000      2.000000
  0.375000  0.250000  0.000000      4.000000
  0.500000  0.250000  0.000000      4.000000
 -0.375000  0.250000  0.000000      4.000000
 -0.250000  0.250000  0.000000      2.000000
  0.375000  0.375000  0.000000      2.000000
  0.500000  0.375000  0.000000      4.000000
 -0.375000  0.375000  0.000000      2.000000
  0.500000  0.500000  0.000000      1.000000
  0.000000 -0.000000  0.111111      2.000000
  0.125000 -0.000000  0.111111      4.000000
  0.250000  0.000000  0.111111      4.000000
  0.375000  0.000000  0.111111      4.000000
  0.500000 -0.000000  0.111111      4.000000
 -0.375000 -0.000000  0.111111      4.000000
 -0.250000  0.000000  0.111111      4.000000
 -0.125000  0.000000  0.111111      4.000000
  0.125000  0.125000  0.111111      2.000000
  0.250000  0.125000  0.111111      4.000000
  0.375000  0.125000  0.111111      4.000000
  0.500000  0.125000  0.111111      4.000000
 -0.375000  0.125000  0.111111      4.000000
 -0.250000  0.125000  0.111111      4.000000
 -0.125000  0.125000  0.111111      4.000000
  0.250000  0.250000  0.111111      2.000000
  0.375000  0.250000  0.111111      4.000000
  0.500000  0.250000  0.111111      4.000000
 -0.375000  0.250000  0.111111      4.000000
 -0.250000  0.250000  0.111111      4.000000
 -0.125000  0.250000  0.111111      4.000000
  0.375000  0.375000  0.111111      2.000000
  0.500000  0.375000  0.111111      4.000000
 -0.375000  0.375000  0.111111      4.000000
 -0.250000  0.375000  0.111111      4.000000
 -0.125000  0.375000  0.111111      4.000000
  0.500000  0.500000  0.111111      2.000000
 -0.375000  0.500000  0.111111      4.000000
 -0.250000  0.500000  0.111111      4.000000
 -0.125000  0.500000  0.111111      4.000000
 -0.375000 -0.375000  0.111111      2.000000
 -0.250000 -0.375000  0.111111      4.000000
 -0.125000 -0.375000  0.111111      4.000000
 -0.250000 -0.250000  0.111111      2.000000
 -0.125000 -0.250000  0.111111      4.000000
 -0.125000 -0.125000  0.111111      2.000000
  0.000000 -0.000000  0.222222      2.000000
  0.125000  0.000000  0.222222      4.000000
  0.250000 -0.000000  0.222222      4.000000
[...]
  0.375000  0.375000  0.444444      2.000000
  0.500000  0.375000  0.444444      4.000000
 -0.375000  0.375000  0.444444      4.000000
 -0.250000  0.375000  0.444444      4.000000
 -0.125000  0.375000  0.444444      4.000000
  0.500000  0.500000  0.444444      2.000000
 -0.375000  0.500000  0.444444      4.000000
 -0.250000  0.500000  0.444444      4.000000
 -0.125000  0.500000  0.444444      4.000000
 -0.375000 -0.375000  0.444444      2.000000
 -0.250000 -0.375000  0.444444      4.000000
 -0.125000 -0.375000  0.444444      4.000000
[...]
   0.50000000 -0.00000000  0.11111111       0.007
  -0.37500000 -0.00000000  0.11111111       0.007
  -0.25000000  0.00000000  0.11111111       0.007
  -0.12500000  0.00000000  0.11111111       0.007
   0.12500000  0.12500000  0.11111111       0.003
   0.25000000  0.12500000  0.11111111       0.007
   0.37500000  0.12500000  0.11111111       0.007
   0.50000000  0.12500000  0.11111111       0.007
  -0.37500000  0.12500000  0.11111111       0.007
  -0.25000000  0.12500000  0.11111111       0.007
  -0.12500000  0.12500000  0.11111111       0.007
   0.25000000  0.25000000  0.11111111       0.003
   0.37500000  0.25000000  0.11111111       0.007
   0.50000000  0.25000000  0.11111111       0.007
  -0.37500000  0.25000000  0.11111111       0.007
  -0.25000000  0.25000000  0.11111111       0.007
  -0.12500000  0.25000000  0.11111111       0.007
   0.37500000  0.37500000  0.11111111       0.003
   0.50000000  0.37500000  0.11111111       0.007
  -0.37500000  0.37500000  0.11111111       0.007
  -0.25000000  0.37500000  0.11111111       0.007
  -0.12500000  0.37500000  0.11111111       0.007
   0.50000000  0.50000000  0.11111111       0.003
  -0.37500000  0.50000000  0.11111111       0.007
  -0.25000000  0.50000000  0.11111111       0.007
  -0.12500000  0.50000000  0.11111111       0.007
  -0.37500000 -0.37500000  0.11111111       0.003
  -0.25000000 -0.37500000  0.11111111       0.007
  -0.12500000 -0.37500000  0.11111111       0.007
  -0.25000000 -0.25000000  0.11111111       0.003
  -0.12500000 -0.25000000  0.11111111       0.007
  -0.12500000 -0.12500000  0.11111111       0.003
   0.00000000 -0.00000000  0.22222222       0.003
   0.12500000  0.00000000  0.22222222       0.007
   0.25000000 -0.00000000  0.22222222       0.007
[...]
   0.37500000  0.37500000  0.44444444       0.003
   0.50000000  0.37500000  0.44444444       0.007
  -0.37500000  0.37500000  0.44444444       0.007
  -0.25000000  0.37500000  0.44444444       0.007
  -0.12500000  0.37500000  0.44444444       0.007
   0.50000000  0.50000000  0.44444444       0.003
  -0.37500000  0.50000000  0.44444444       0.007
  -0.25000000  0.50000000  0.44444444       0.007
  -0.12500000  0.50000000  0.44444444       0.007
  -0.37500000 -0.37500000  0.44444444       0.003
  -0.25000000 -0.37500000  0.44444444       0.007
  -0.12500000 -0.37500000  0.44444444       0.007
  -0.25000000 -0.25000000  0.44444444       0.003
  -0.12500000 -0.25000000  0.44444444       0.007
  -0.12500000 -0.12500000  0.44444444       0.003

 position of ions in fractional coordinates (direct lattice)
   0.50000000  0.00000000  0.50000000
   0.00000000  0.50000000  0.50000000
   0.25000000  0.25000000  0.00000000
   0.74265000  0.24265000  0.98530000
   0.75000000  0.75000000  0.00000000
   0.25735000  0.75735000  0.01470000
   0.24265000  0.25735000  0.50000000
   0.75735000  0.74265000  0.50000000
   0.25000000  0.75000000  0.50000000
   0.75000000  0.25000000  0.50000000

 position of ions in cartesian coordinates  (Angst):
   2.41401081  0.00000000  1.38014010
  -0.78905541  2.28141179  1.38014010
   0.81247770  1.14070590 -1.42110990
   3.20260167  1.10716914  2.71970408
   2.43743310  3.42211769 -4.26332970
   0.04730913  3.45565444 -2.80164368
   0.76539263  1.17424265  1.38014010
   2.48451817  3.38858093 -1.46207970
   0.02342228  3.42211769 -0.04096980
   3.22648851  1.14070590 -0.04096980

 k-point   1 :   0.0000 0.0000 0.0000  plane waves:    4095
 k-point   2 :   0.1250-0.0000 0.0000  plane waves:    4119
 k-point   3 :   0.2500-0.0000 0.0000  plane waves:    4115
 k-point   4 :   0.3750 0.0000 0.0000  plane waves:    4133
 k-point   5 :   0.5000-0.0000 0.0000  plane waves:    4140
 k-point   6 :   0.1250 0.1250 0.0000  plane waves:    4107
 k-point   7 :   0.2500 0.1250 0.0000  plane waves:    4121
 k-point   8 :   0.3750 0.1250 0.0000  plane waves:    4117
 k-point   9 :   0.5000 0.1250 0.0000  plane waves:    4118
 k-point  10 :  -0.3750 0.1250 0.0000  plane waves:    4120
 k-point  11 :  -0.2500 0.1250 0.0000  plane waves:    4107
 k-point  12 :  -0.1250 0.1250 0.0000  plane waves:    4125
 k-point  13 :   0.2500 0.2500 0.0000  plane waves:    4129
 k-point  14 :   0.3750 0.2500 0.0000  plane waves:    4125
 k-point  15 :   0.5000 0.2500 0.0000  plane waves:    4123
 k-point  16 :  -0.3750 0.2500 0.0000  plane waves:    4117
 k-point  17 :  -0.2500 0.2500 0.0000  plane waves:    4114
 k-point  18 :   0.3750 0.3750 0.0000  plane waves:    4127
 k-point  19 :   0.5000 0.3750 0.0000  plane waves:    4120
 k-point  20 :  -0.3750 0.3750 0.0000  plane waves:    4110
 k-point  21 :   0.5000 0.5000 0.0000  plane waves:    4120
 k-point  22 :   0.0000-0.0000 0.1111  plane waves:    4127
 k-point  23 :   0.1250-0.0000 0.1111  plane waves:    4107
 k-point  24 :   0.2500 0.0000 0.1111  plane waves:    4118
 k-point  25 :   0.3750 0.0000 0.1111  plane waves:    4117
 k-point  26 :   0.5000-0.0000 0.1111  plane waves:    4121
 k-point  27 :  -0.3750-0.0000 0.1111  plane waves:    4118
 k-point  28 :  -0.2500 0.0000 0.1111  plane waves:    4107
 k-point  29 :  -0.1250 0.0000 0.1111  plane waves:    4112
 k-point  30 :   0.1250 0.1250 0.1111  plane waves:    4110
 k-point  31 :   0.2500 0.1250 0.1111  plane waves:    4121
 k-point  32 :   0.3750 0.1250 0.1111  plane waves:    4126
 k-point  33 :   0.5000 0.1250 0.1111  plane waves:    4120
 k-point  34 :  -0.3750 0.1250 0.1111  plane waves:    4111
 k-point  35 :  -0.2500 0.1250 0.1111  plane waves:    4109
 k-point  36 :  -0.1250 0.1250 0.1111  plane waves:    4105
 k-point  37 :   0.2500 0.2500 0.1111  plane waves:    4129
 k-point  38 :   0.3750 0.2500 0.1111  plane waves:    4134
 k-point  39 :   0.5000 0.2500 0.1111  plane waves:    4123
 k-point  40 :  -0.3750 0.2500 0.1111  plane waves:    4121
 k-point  41 :  -0.2500 0.2500 0.1111  plane waves:    4111
 k-point  42 :  -0.1250 0.2500 0.1111  plane waves:    4108
 k-point  43 :   0.3750 0.3750 0.1111  plane waves:    4129
 k-point  44 :   0.5000 0.3750 0.1111  plane waves:    4121
 k-point  45 :  -0.3750 0.3750 0.1111  plane waves:    4124
 k-point  46 :  -0.2500 0.3750 0.1111  plane waves:    4120
 k-point  47 :  -0.1250 0.3750 0.1111  plane waves:    4125
 k-point  48 :   0.5000 0.5000 0.1111  plane waves:    4140
 k-point  49 :  -0.3750 0.5000 0.1111  plane waves:    4125
 k-point  50 :  -0.2500 0.5000 0.1111  plane waves:    4117
 k-point  51 :  -0.1250 0.5000 0.1111  plane waves:    4118
 k-point  52 :  -0.3750-0.3750 0.1111  plane waves:    4121
 k-point  53 :  -0.2500-0.3750 0.1111  plane waves:    4118
 k-point  54 :  -0.1250-0.3750 0.1111  plane waves:    4116
 k-point  55 :  -0.2500-0.2500 0.1111  plane waves:    4113
 k-point  56 :  -0.1250-0.2500 0.1111  plane waves:    4109
 k-point  57 :  -0.1250-0.1250 0.1111  plane waves:    4124
 k-point  58 :   0.0000-0.0000 0.2222  plane waves:    4106
 k-point  59 :   0.1250 0.0000 0.2222  plane waves:    4116
 k-point  60 :   0.2500-0.0000 0.2222  plane waves:    4112
[...]
 k-point 151 :   0.3750 0.3750 0.4444  plane waves:    4135
 k-point 152 :   0.5000 0.3750 0.4444  plane waves:    4121
 k-point 153 :  -0.3750 0.3750 0.4444  plane waves:    4119
 k-point 154 :  -0.2500 0.3750 0.4444  plane waves:    4123
 k-point 155 :  -0.1250 0.3750 0.4444  plane waves:    4124
 k-point 156 :   0.5000 0.5000 0.4444  plane waves:    4118
 k-point 157 :  -0.3750 0.5000 0.4444  plane waves:    4124
 k-point 158 :  -0.2500 0.5000 0.4444  plane waves:    4120
 k-point 159 :  -0.1250 0.5000 0.4444  plane waves:    4122
 k-point 160 :  -0.3750-0.3750 0.4444  plane waves:    4108
 k-point 161 :  -0.2500-0.3750 0.4444  plane waves:    4117
 k-point 162 :  -0.1250-0.3750 0.4444  plane waves:    4117
 k-point 163 :  -0.2500-0.2500 0.4444  plane waves:    4124
 k-point 164 :  -0.1250-0.2500 0.4444  plane waves:    4126
 k-point 165 :  -0.1250-0.1250 0.4444  plane waves:    4132

 maximum and minimum number of plane-waves per node :      2099     2025

 maximum number of plane-waves:      4144
 maximum index in each direction:
   IXMAX=   11   IYMAX=   11   IZMAX=   11
   IXMIN=  -11   IYMIN=  -11   IZMIN=  -11

 parallel 3D FFT for wavefunctions:
    minimum data exchange during FFTs selected (reduces bandwidth)
 parallel 3D FFT for charge:
    minimum data exchange during FFTs selected (reduces bandwidth)

 Broyden mixing: mesh for mixing (old mesh)
   NGX = 23   NGY = 23   NGZ = 23
  (NGX  = 96   NGY  = 96   NGZ  = 96)
  gives a total of  12167 points

 initial charge density was supplied:
 charge density of overlapping atoms calculated
 number of electron      98.0000000 magnetization
 keeping initial charge density in first step

 Maximum index for augmentation-charges        25339 (set IRDMAX)

 First call to EWALD:  gamma=   0.356
 Maximum number of real-space cells 3x 3x 3
 Maximum number of reciprocal cells 3x 3x 3

--------------------------------------- Iteration      1(   1)  ---------------------------------------

 eigenvalue-minimisations  : 19812
 total energy-change (2. order) : 0.1104365E+04  (-0.6816513E+04)
 number of electron      98.0000000 magnetization
 augmentation part       98.0000000 magnetization

 Free energy of the ion-electron system (eV)
  alpha Z        PSCENC =       676.91296449
  Ewald energy   TEWEN  =     -9851.98717812
  -Hartree energ DENC   =     -2153.69696318
  -exchange      EXHF   =         0.00000000
  -V(xc)+E(xc)   XCENC  =       472.90287073
  PAW double counting   =      9166.97638771    -9126.13493418
  entropy T*S    EENTRO =        -0.00053455
  eigenvalues    EBANDS =       397.22474367
  atomic energy  EATOM  =     11522.16744521
  free energy    TOTEN  =      1104.36480179 eV

  energy without entropy =     1104.36533634  energy(sigma->0) =     1104.36506906

[...]

 eigenvalue-minimisations  : 21756
 total energy-change (2. order) :-0.1280306E+04  (-0.1246347E+04)
 number of electron      98.0000000 magnetization
 augmentation part       98.0000000 magnetization

[...]

 eigenvalue-minimisations  :     0
 total energy-change (2. order) : 0.7859361E+02  (-0.2497502E+02)
 number of electron      98.0000001 magnetization
 augmentation part       14.5203797 magnetization

[...]

 eigenvalue-minimisations  :     0
 total energy-change (2. order) : 0.1120497E-08  ( 0.9080950E-11)
 number of electron      98.0000001 magnetization
 augmentation part       14.3879180 magnetization

[...]

 eigenvalue-minimisations  :     0
 total energy-change (2. order) :-0.1055014E-08  (-0.2286970E-10)
 number of electron      98.0000001 magnetization
 augmentation part       14.3879180 magnetization

[...]

--------------------------------------- Iteration      1(  37)  ---------------------------------------

 eigenvalue-minimisations  :     0
 total energy-change (2. order) :-0.8549250E-10  ( 0.2765810E-10)
 number of electron      98.0000001 magnetization
 augmentation part       14.3879180 magnetization

 Free energy of the ion-electron system (eV)
  alpha Z        PSCENC =       676.91296449
  Ewald energy   TEWEN  =     -9851.98717812
  -Hartree energ DENC   =     -2021.07073389
  -exchange      EXHF   =         0.00000000
  -V(xc)+E(xc)   XCENC  =       482.50497031
  PAW double counting   =     13640.78130841   -13621.63843336
  entropy T*S    EENTRO =        -0.00153073
  eigenvalues    EBANDS =     -1009.39974472
  atomic energy  EATOM  =     11522.16744521
  free energy    TOTEN  =      -181.73093239 eV

  energy without entropy =     -181.72940166  energy(sigma->0) =     -181.73016703

  average scaling for gradient   1.1307

 average (electrostatic) potential at core
  the test charge radii are     0.7672  1.0818  0.9892
  (the norm of the test charge is              1.0000)
       1 -20.7600       2 -20.7600       3 -73.8454       4 -73.6131       5 -73.8454
       6 -73.6131       7 -73.6131       8 -73.6131       9 -80.1449      10 -80.1449

 E-fermi :  12.9909     XC(G=0): -14.4084     alpha+bet :-20.8745

 Fermi energy:        12.9908804840

 k-point     1 :       0.0000    0.0000    0.0000
  band No.  band energies     occupation
      1     -50.0236      2.00000
      2     -49.8883      2.00000
      3     -49.7801      2.00000
      4     -49.7801      2.00000
      5     -49.7576      2.00000
      6     -49.6699      2.00000
      7     -24.2050      2.00000
      8     -24.0915      2.00000
      9     -23.9467      2.00000
     10     -23.9467      2.00000
     11     -23.8835      2.00000
     12     -23.7673      2.00000
     13     -23.7673      2.00000
     14     -23.3139      2.00000
     15     -23.3139      2.00000
     16     -23.1829      2.00000
     17     -23.0014      2.00000
     18     -22.8475      2.00000
     19     -22.8475      2.00000
     20     -22.8389      2.00000
     21     -22.7981      2.00000
     22     -22.6887      2.00000
     23     -22.6887      2.00000
     24     -22.5734      2.00000
     25      -0.5478      2.00000
     26       1.4104      2.00000
     27       5.1588      2.00000
     28       5.2775      2.00000
     29       5.9597      2.00000
     30       5.9597      2.00000
     31       6.8038      2.00000
     32       7.2348      2.00000
     33       8.1892      2.00000
     34       8.2690      2.00000
     35       8.4082      2.00000
     36       8.4082      2.00000
     37       8.4207      2.00000
     38       9.4209      2.00000
     39       9.4209      2.00000
     40       9.6136      2.00000
     41       9.6136      2.00000
     42      10.5795      2.00000
     43      10.5795      2.00000
     44      11.6694      2.00000
     45      12.4471      2.00000
     46      12.4471      2.00000
     47      12.4957      2.00000
     48      12.7784      2.00000
     49      12.7784      2.00000
     50      12.9941      0.82199
     51      13.0919      0.00000
     52      13.9520      0.00000
     53      14.1920      0.00000
     54      14.7639      0.00000
     55      15.3814      0.00000
     56      15.5560      0.00000
     57      16.2516      0.00000
     58      16.5126      0.00000
     59      16.9416      0.00000
     60      17.3618      0.00000

[...]

 k-point   165 :      -0.1250   -0.1250    0.4444
  band No.  band energies     occupation
      1     -49.9655      2.00000
      2     -49.8974      2.00000
      3     -49.7799      2.00000
      4     -49.7734      2.00000
      5     -49.7728      2.00000
      6     -49.7140      2.00000
      7     -23.9436      2.00000
      8     -23.8385      2.00000
      9     -23.8087      2.00000
     10     -23.7625      2.00000
     11     -23.7389      2.00000
     12     -23.6952      2.00000
     13     -23.5108      2.00000
     14     -23.4092      2.00000
     15     -23.3949      2.00000
     16     -23.2953      2.00000
     17     -23.1698      2.00000
     18     -23.1435      2.00000
     19     -23.0424      2.00000
     20     -22.8836      2.00000
     21     -22.8737      2.00000
     22     -22.8251      2.00000
     23     -22.7903      2.00000
     24     -22.7292      2.00000
     25       0.5864      2.00000
     26       1.8286      2.00000
     27       3.5468      2.00000
     28       5.1378      2.00000
     29       6.3744      2.00000
     30       6.5388      2.00000
     31       7.4502      2.00000
     32       7.5839      2.00000
     33       8.0211      2.00000
     34       8.0292      2.00000
     35       8.1183      2.00000
     36       9.0076      2.00000
     37       9.1412      2.00000
     38       9.2710      2.00000
     39       9.4955      2.00000
     40       9.5303      2.00000
     41      10.0345      2.00000
     42      10.4414      2.00000
     43      10.4497      2.00000
     44      11.1244      2.00000
     45      11.8104      2.00000
     46      11.9115      2.00000
     47      12.4122      2.00000
     48      12.5349      2.00000
     49      12.9671      1.90764
     50      13.2123      0.00000
     51      13.2843      0.00000
     52      13.6623      0.00000
     53      14.0254      0.00000
     54      14.1162      0.00000
     55      14.2434      0.00000
     56      14.8730      0.00000
     57      15.3573      0.00000
     58      15.7363      0.00000
     59      15.8844      0.00000
     60      16.6732      0.00000

 soft charge-density along one line, spin component           1
         0         1         2         3         4         5         6         7         8         9
 total charge-density along one line

------------------------ aborting loop because EDIFF is reached ----------------------------------------

  FREE ENERGIE OF THE ION-ELECTRON SYSTEM (eV)
  free  energy   TOTEN  =      -181.73093239 eV

  energy  without entropy=     -181.72940166  energy(sigma->0) =     -181.73016703

 writing wavefunctions