 vasp.6.2.0 18Jan21 (build Jan 05 2022 15:41:44) complex

 executed on             LinuxIFC date 2025.05.07  21:20:51

 INCAR:
   SYSTEM = routine with relax: pwdword
   ICHARG = 2
   NPAR = 6
   KPAR = 2
   NCORE = 2
   ADDGRID = T
   PREC = Acc
   ENCUT = 600
   METAGGA = R2SCAN
   LASPH = .TRUE.
   LMIXTAU = .FALSE.
   ALGO = A
   EDIFF = 1E-9
   NELM = 100
   NELMIN = 6
   IALGO = 38
   LREAL = F
   NSW = 0
   ISIF = -1
   ISMEAR = 0
   SIGMA = 0.02

 POTCAR:    PAW_PBE B 06Sep2000
 POTCAR:    PAW_PBE Mo_sv 02Feb2006
|           W    W    AA    RRRRR   N    N  II  N    N   GGGG   !!!           |
|           W    W   A  A   R    R  NN   N  II  NN   N  G    G  !!!           |
|           W    W  A    A  R    R  N N  N  II  N N  N  G       !!!           |
|           W WW W  AAAAAA  RRRRR   N  N N  II  N  N N  G  GGG   !            |
|           WW  WW  A    A  R   R   N   NN  II  N   NN  G    G                |
|           W    W  A    A  R    R  N    N  II  N    N   GGGG   !!!           |
|     For optimal performance we recommend to set                             |
|       NCORE = 2 up to number-of-cores-per-socket                            |
|     This setting can greatly improve the performance of VASP for DFT.       |
|     The default, NCORE=1 might be grossly inefficient on modern             |
|     multi-core architectures or massively parallel machines. Do your        |
|     Unfortunately you need to use the default for GW and RPA                |
|     calculations (for HF NCORE is supported but not extensively tested      |
|     yet).                                                                   |

 POTCAR:    PAW_PBE B 06Sep2000
   VRHFIN =B: s2p1

   TITEL  = PAW_PBE B 06Sep2000
   POMASS =   10.811; ZVAL   =    3.000    mass and valenz
   ENMAX  =  318.614; ENMIN  =  238.960 eV

 POTCAR:    PAW_PBE Mo_sv 02Feb2006
   VRHFIN =Mo: 4p5s4d

   TITEL  = PAW_PBE Mo_sv 02Feb2006
   POMASS =   95.940; ZVAL   =   14.000    mass and valenz
   ENMAX  =  242.676; ENMIN  =  182.007 eV

  PAW_PBE B 06Sep2000                   :
  PAW_PBE Mo_sv 02Feb2006               :

 POSCAR: EA248
  positions in direct lattice

 METAGGA = R2SCA    LMAXTAU =  6    LMIXTAU =  F

 ion  position               nearest neighbor table
   1  0.660  0.000  0.285-   5 1.76   6 1.88   4 1.88  14 2.18  13 2.34  15 2.34
   2  0.000  0.660  0.285-   4 1.76   6 1.88   5 1.88  14 2.18  15 2.34  13 2.34
   3  0.340  0.340  0.285-   6 1.76   5 1.88   4 1.88  14 2.18  13 2.34  15 2.34
   4  0.000  0.340  0.285-   2 1.76   3 1.88   1 1.88  14 2.18  13 2.34  15 2.34
   5  0.340  0.000  0.285-   1 1.76   3 1.88   2 1.88  14 2.18  15 2.34  13 2.34
   6  0.660  0.660  0.285-   3 1.76   2 1.88   1 1.88  14 2.18  13 2.34  15 2.34
   7  0.000  0.340  0.715-  12 1.76  11 1.88  10 1.88  14 2.18  13 2.34  15 2.34
   8  0.660  0.660  0.715-  11 1.76  10 1.88  12 1.88  14 2.18  13 2.34  15 2.34
   9  0.340  0.000  0.715-  10 1.76  11 1.88  12 1.88  14 2.18  15 2.34  13 2.34
  10  0.660  0.000  0.715-   9 1.76   8 1.88   7 1.88  14 2.18  13 2.34  15 2.34
  11  0.340  0.340  0.715-   8 1.76   7 1.88   9 1.88  14 2.18  13 2.34  15 2.34
  12  0.000  0.660  0.715-   7 1.76   8 1.88   9 1.88  14 2.18  15 2.34  13 2.34
  13  0.667  0.333  0.000-   1 2.34   4 2.34   7 2.34  10 2.34   2 2.34   9 2.34   5 2.34  12 2.34
                             6 2.34   3 2.34  11 2.34   8 2.34  15 3.18  15 3.18  15 3.18
  14  0.000  0.000  0.500-   1 2.18   2 2.18   4 2.18   5 2.18   7 2.18   9 2.18  10 2.18  12 2.18
                             6 2.18   3 2.18  11 2.18   8 2.18
  15  0.333  0.667  0.000-   2 2.34   5 2.34   9 2.34  12 2.34   7 2.34   4 2.34  10 2.34   1 2.34
                             6 2.34   3 2.34  11 2.34   8 2.34  13 3.18  13 3.18  13 3.18

  LATTYP: Found a hexagonal cell.
 ALAT       =     5.5158798231
 C/A-ratio  =     0.9368237100

  Lattice vectors:

 A1 = (   2.7579400000,  -4.7768920000,   0.0000000000)
 A2 = (   2.7579400000,   4.7768920000,   0.0000000000)
 A3 = (   0.0000000000,   0.0000000000,   5.1674070000)

Analysis of symmetry for initial positions (statically):
 Subroutine PRICEL returns:
 Original cell was already a primitive cell.

 Routine SETGRP: Setting up the symmetry group for a
 hexagonal supercell.

 Subroutine GETGRP returns: Found 24 space group operations
 (whereof 24 operations were pure point group operations)
 out of a pool of 24 trial point group operations.

The static configuration has the point symmetry D_6h.

Analysis of symmetry for dynamics (positions and initial velocities):
 Subroutine PRICEL returns:
 Original cell was already a primitive cell.

 Routine SETGRP: Setting up the symmetry group for a
 hexagonal supercell.

 Subroutine GETGRP returns: Found 24 space group operations
 (whereof 24 operations were pure point group operations)
 out of a pool of 24 trial point group operations.

The dynamic configuration has the point symmetry D_6h.

 Subroutine INISYM returns: Found 24 space group operations
 (whereof 24 operations are pure point group operations),
 and found     1 'primitive' translations

                                     Primitive cell

  volume of cell :     136.1548

  direct lattice vectors                    reciprocal lattice vectors
     2.757940000 -4.776892000  0.000000000     0.181294734 -0.104670568  0.000000000
     2.757940000  4.776892000  0.000000000     0.181294734  0.104670568  0.000000000
     0.000000000  0.000000000  5.167407000     0.000000000  0.000000000  0.193520657

  length of vectors
     5.515879823  5.515879823  5.167407000     0.209341130  0.209341130  0.193520657

  position of ions in fractional coordinates (direct lattice)
     0.659920000  0.000000000  0.285466000
     0.000000000  0.659920000  0.285466000
     0.340080000  0.340080000  0.285466000
     0.000000000  0.340080000  0.285466000
     0.340080000  0.000000000  0.285466000
     0.659920000  0.659920000  0.285466000
     0.000000000  0.340080000  0.714534000
     0.659920000  0.659920000  0.714534000
     0.340080000  0.000000000  0.714534000
     0.659920000  0.000000000  0.714534000
     0.340080000  0.340080000  0.714534000
     0.000000000  0.659920000  0.714534000
     0.666667000  0.333333000  0.000000000
     0.000000000  0.000000000  0.500000000
     0.333333000  0.666667000  0.000000000

  ion indices of the primitive-cell ions
   primitive index   ion index
                 1           1
                 2           2
                 3           3
                 4           4
                 5           5
                 6           6
                 7           7
                 8           8
                 9           9
                10          10
                11          11
                12          12
                13          13
                14          14
                15          15

 KPOINTS: EA

Automatic generation of k-mesh.
 Grid dimensions read from file:
 generate k-points for:    7    7    7

 Generating k-lattice:

  Cartesian coordinates                     Fractional coordinates (reciprocal lattice)
     0.025899248 -0.014952938  0.000000000     0.142857143  0.000000000  0.000000000
     0.025899248  0.014952938  0.000000000     0.000000000  0.142857143  0.000000000
     0.000000000  0.000000000  0.027645808     0.000000000  0.000000000  0.142857143

  Length of vectors
     0.029905876  0.029905876  0.027645808

  Shift w.r.t. Gamma in fractional coordinates (k-lattice)
     0.000000000  0.000000000  0.000000000

 Subroutine IBZKPT returns following result:

 Found     32 irreducible k-points:

 Following reciprocal coordinates:
            Coordinates               Weight
  0.000000  0.000000  0.000000      1.000000
  0.142857 -0.000000  0.000000      6.000000
  0.285714 -0.000000  0.000000      6.000000
  0.428571  0.000000  0.000000      6.000000
  0.142857  0.142857  0.000000      6.000000
  0.285714  0.142857  0.000000     12.000000
  0.428571  0.142857  0.000000      6.000000
  0.285714  0.285714  0.000000      6.000000
  0.000000  0.000000  0.142857      2.000000
  0.142857 -0.000000  0.142857     12.000000
  0.285714 -0.000000  0.142857     12.000000
  0.428571  0.000000  0.142857     12.000000
  0.142857  0.142857  0.142857     12.000000
  0.285714  0.142857  0.142857     24.000000
  0.428571  0.142857  0.142857     12.000000
  0.285714  0.285714  0.142857     12.000000
  0.000000  0.000000  0.285714      2.000000
  0.142857 -0.000000  0.285714     12.000000
  0.285714 -0.000000  0.285714     12.000000
  0.428571  0.000000  0.285714     12.000000
  0.142857  0.142857  0.285714     12.000000
  0.285714  0.142857  0.285714     24.000000
  0.428571  0.142857  0.285714     12.000000
  0.285714  0.285714  0.285714     12.000000
  0.000000  0.000000  0.428571      2.000000
  0.142857 -0.000000  0.428571     12.000000
  0.285714 -0.000000  0.428571     12.000000
  0.428571  0.000000  0.428571     12.000000
  0.142857  0.142857  0.428571     12.000000
  0.285714  0.142857  0.428571     24.000000
  0.428571  0.142857  0.428571     12.000000
  0.285714  0.285714  0.428571     12.000000

 Following cartesian coordinates:
            Coordinates               Weight
  0.000000  0.000000  0.000000      1.000000
  0.025899 -0.014953  0.000000      6.000000
  0.051798 -0.029906  0.000000      6.000000
  0.077698 -0.044859  0.000000      6.000000
  0.051798  0.000000  0.000000      6.000000
  0.077698 -0.014953  0.000000     12.000000
  0.103597 -0.029906  0.000000      6.000000
  0.103597  0.000000  0.000000      6.000000
  0.000000  0.000000  0.027646      2.000000
  0.025899 -0.014953  0.027646     12.000000
  0.051798 -0.029906  0.027646     12.000000
  0.077698 -0.044859  0.027646     12.000000
  0.051798  0.000000  0.027646     12.000000
  0.077698 -0.014953  0.027646     24.000000
  0.103597 -0.029906  0.027646     12.000000
  0.103597  0.000000  0.027646     12.000000
  0.000000  0.000000  0.055292      2.000000
  0.025899 -0.014953  0.055292     12.000000
  0.051798 -0.029906  0.055292     12.000000
  0.077698 -0.044859  0.055292     12.000000
  0.051798  0.000000  0.055292     12.000000
  0.077698 -0.014953  0.055292     24.000000
  0.103597 -0.029906  0.055292     12.000000
  0.103597  0.000000  0.055292     12.000000
  0.000000  0.000000  0.082937      2.000000
  0.025899 -0.014953  0.082937     12.000000
  0.051798 -0.029906  0.082937     12.000000
  0.077698 -0.044859  0.082937     12.000000
  0.051798  0.000000  0.082937     12.000000
  0.077698 -0.014953  0.082937     24.000000
  0.103597 -0.029906  0.082937     12.000000
  0.103597  0.000000  0.082937     12.000000

 SYSTEM =  routine with relax: pwdword
 POSCAR =  EA248

 Startparameter for this run:
   NWRITE =      2    write-flag & timer
   PREC   = acc       normal or accurate (medium, high low for compatibility)
   ISTART =      0    job   : 0-new  1-cont  2-samecut
   ICHARG =      2    charge: 1-file 2-atom 10-const
   ISPIN  =      1    spin polarized calculation?
   LNONCOLLINEAR =      F non collinear calculations
   LSORBIT =      F    spin-orbit coupling
   INIWAV =      1    electr: 0-lowe 1-rand  2-diag
[...]
   LHFCALC =     F    Hartree Fock is set to
   LHFONE  =     F    Hartree Fock one center treatment
   AEXX    =    0.0000 exact exchange contribution

 Linear response parameters
   LEPSILON=     F    determine dielectric tensor
   LRPA    =     F    only Hartree local field effects (RPA)
   LNABLA  =     F    use nabla operator in PAW spheres
   LVEL    =     F    velocity operator in full k-point grid
   LINTERFAST=   F  fast interpolation
   KINTER  =     0    interpolate to denser k-point grid
   CSHIFT  =0.1000    complex shift for real part using Kramers Kronig
   OMEGAMAX=  -1.0    maximum frequency
   DEG_THRESHOLD= 0.2000000E-02 threshold for treating states as degnerate
   RTIME   =   -0.100 relaxation time in fs
  (WPLASMAI=    0.000 imaginary part of plasma frequency in eV, 0.658/RTIME)
   DFIELD  = 0.0000000 0.0000000 0.0000000 field for delta impulse in time

 Orbital magnetization related:
   ORBITALMAG=     F  switch on orbital magnetization
   LCHIMAG   =     F  perturbation theory with respect to B field
   DQ        =  0.001000  dq finite difference perturbation B field
   LLRAUG    =     F  two centre corrections for induced B field

 Static calculation
 charge density and potential will be updated during run
 non-spin polarized calculation
 Conjugate gradient for all bands (Freysoldt, et al. PRB 79, 241103 (2009))
 preconditioned conjugated gradient
 perform sub-space diagonalisation
    before iterative eigenvector-optimisation
 modified Broyden-mixing scheme, WC =      100.0
 initial mixing is a Kerker type mixing with AMIX =  0.4000 and BMIX =      1.0000
 Hartree-type preconditioning will be used
 using additional bands            9
 reciprocal scheme for non local part
 use partial core corrections
 no Harris-corrections to forces
 use gradient corrections
 use of overlap-Matrix (Vanderbilt PP)
 Gauss-broadening in eV      SIGMA  =   0.02

  energy-cutoff  :      600.00
  volume of cell :      136.15
      direct lattice vectors                 reciprocal lattice vectors
     2.757940000 -4.776892000  0.000000000     0.181294734 -0.104670568  0.000000000
     2.757940000  4.776892000  0.000000000     0.181294734  0.104670568  0.000000000
     0.000000000  0.000000000  5.167407000     0.000000000  0.000000000  0.193520657

  length of vectors
     5.515879823  5.515879823  5.167407000     0.209341130  0.209341130  0.193520657

 k-points in units of 2pi/SCALE and weight: EA
   0.00000000  0.00000000  0.00000000       0.003
   0.02589925 -0.01495294  0.00000000       0.017
   0.05179850 -0.02990588  0.00000000       0.017
   0.07769774 -0.04485881  0.00000000       0.017
   0.05179850  0.00000000  0.00000000       0.017
   0.07769774 -0.01495294  0.00000000       0.035
   0.10359699 -0.02990588  0.00000000       0.017
   0.10359699  0.00000000  0.00000000       0.017
   0.00000000  0.00000000  0.02764581       0.006
   0.02589925 -0.01495294  0.02764581       0.035
   0.05179850 -0.02990588  0.02764581       0.035
   0.07769774 -0.04485881  0.02764581       0.035
   0.05179850  0.00000000  0.02764581       0.035
   0.07769774 -0.01495294  0.02764581       0.070
   0.10359699 -0.02990588  0.02764581       0.035
   0.10359699  0.00000000  0.02764581       0.035
   0.00000000  0.00000000  0.05529162       0.006
   0.02589925 -0.01495294  0.05529162       0.035
   0.05179850 -0.02990588  0.05529162       0.035
   0.07769774 -0.04485881  0.05529162       0.035
   0.05179850  0.00000000  0.05529162       0.035
   0.07769774 -0.01495294  0.05529162       0.070
   0.10359699 -0.02990588  0.05529162       0.035
   0.10359699  0.00000000  0.05529162       0.035
   0.00000000  0.00000000  0.08293742       0.006
   0.02589925 -0.01495294  0.08293742       0.035
   0.05179850 -0.02990588  0.08293742       0.035
   0.07769774 -0.04485881  0.08293742       0.035
   0.05179850  0.00000000  0.08293742       0.035
   0.07769774 -0.01495294  0.08293742       0.070
   0.10359699 -0.02990588  0.08293742       0.035
   0.10359699  0.00000000  0.08293742       0.035

 k-points in reciprocal lattice and weights: EA
   0.00000000  0.00000000  0.00000000       0.003
   0.14285714 -0.00000000  0.00000000       0.017
   0.28571429 -0.00000000  0.00000000       0.017
   0.42857143  0.00000000  0.00000000       0.017
   0.14285714  0.14285714  0.00000000       0.017
   0.28571429  0.14285714  0.00000000       0.035
   0.42857143  0.14285714  0.00000000       0.017
   0.28571429  0.28571429  0.00000000       0.017
   0.00000000  0.00000000  0.14285714       0.006
   0.14285714 -0.00000000  0.14285714       0.035
   0.28571429 -0.00000000  0.14285714       0.035
   0.42857143  0.00000000  0.14285714       0.035
   0.14285714  0.14285714  0.14285714       0.035
   0.28571429  0.14285714  0.14285714       0.070
   0.42857143  0.14285714  0.14285714       0.035
   0.28571429  0.28571429  0.14285714       0.035
   0.00000000  0.00000000  0.28571429       0.006
   0.14285714 -0.00000000  0.28571429       0.035
   0.28571429 -0.00000000  0.28571429       0.035
   0.42857143  0.00000000  0.28571429       0.035
   0.14285714  0.14285714  0.28571429       0.035
   0.28571429  0.14285714  0.28571429       0.070
   0.42857143  0.14285714  0.28571429       0.035
   0.28571429  0.28571429  0.28571429       0.035
   0.00000000  0.00000000  0.42857143       0.006
   0.14285714 -0.00000000  0.42857143       0.035
   0.28571429 -0.00000000  0.42857143       0.035
   0.42857143  0.00000000  0.42857143       0.035
   0.14285714  0.14285714  0.42857143       0.035
   0.28571429  0.14285714  0.42857143       0.070
   0.42857143  0.14285714  0.42857143       0.035
   0.28571429  0.28571429  0.42857143       0.035

 position of ions in fractional coordinates (direct lattice)
   0.65992000  0.00000000  0.28546600
   0.00000000  0.65992000  0.28546600
   0.34008000  0.34008000  0.28546600
   0.00000000  0.34008000  0.28546600
   0.34008000  0.00000000  0.28546600
   0.65992000  0.65992000  0.28546600
   0.00000000  0.34008000  0.71453400
   0.65992000  0.65992000  0.71453400
   0.34008000  0.00000000  0.71453400
   0.65992000  0.00000000  0.71453400
   0.34008000  0.34008000  0.71453400
   0.00000000  0.65992000  0.71453400
   0.66666700  0.33333300  0.00000000
   0.00000000  0.00000000  0.50000000
   0.33333300  0.66666700  0.00000000

 position of ions in cartesian coordinates  (Angst):
   1.82001976 -3.15236657  1.47511901
   1.82001976  3.15236657  1.47511901
   1.87584047  0.00000000  1.47511901
   0.93792024  1.62452543  1.47511901
   0.93792024 -1.62452543  1.47511901
   3.64003953  0.00000000  1.47511901
   0.93792024  1.62452543  3.69228799
   3.64003953  0.00000000  3.69228799
   0.93792024 -1.62452543  3.69228799
   1.82001976 -3.15236657  3.69228799
   1.87584047  0.00000000  3.69228799
   1.82001976  3.15236657  3.69228799
   2.75794000 -1.59230052  0.00000000
   0.00000000  0.00000000  2.58370350
   2.75794000  1.59230052  0.00000000

 k-point   1 :   0.0000 0.0000 0.0000  plane waves:    4521
 k-point   2 :   0.1429-0.0000 0.0000  plane waves:    4523
 k-point   3 :   0.2857-0.0000 0.0000  plane waves:    4531
 k-point   4 :   0.4286 0.0000 0.0000  plane waves:    4555
 k-point   5 :   0.1429 0.1429 0.0000  plane waves:    4549
 k-point   6 :   0.2857 0.1429 0.0000  plane waves:    4561
 k-point   7 :   0.4286 0.1429 0.0000  plane waves:    4545
 k-point   8 :   0.2857 0.2857 0.0000  plane waves:    4547
 k-point   9 :   0.0000 0.0000 0.1429  plane waves:    4521
 k-point  10 :   0.1429-0.0000 0.1429  plane waves:    4526
 k-point  11 :   0.2857-0.0000 0.1429  plane waves:    4546
 k-point  12 :   0.4286 0.0000 0.1429  plane waves:    4561
 k-point  13 :   0.1429 0.1429 0.1429  plane waves:    4531
 k-point  14 :   0.2857 0.1429 0.1429  plane waves:    4540
 k-point  15 :   0.4286 0.1429 0.1429  plane waves:    4557
 k-point  16 :   0.2857 0.2857 0.1429  plane waves:    4558
 k-point  17 :   0.0000 0.0000 0.2857  plane waves:    4521
 k-point  18 :   0.1429-0.0000 0.2857  plane waves:    4525
 k-point  19 :   0.2857-0.0000 0.2857  plane waves:    4544
 k-point  20 :   0.4286 0.0000 0.2857  plane waves:    4539
 k-point  21 :   0.1429 0.1429 0.2857  plane waves:    4535
 k-point  22 :   0.2857 0.1429 0.2857  plane waves:    4548
 k-point  23 :   0.4286 0.1429 0.2857  plane waves:    4557
 k-point  24 :   0.2857 0.2857 0.2857  plane waves:    4547
 k-point  25 :   0.0000 0.0000 0.4286  plane waves:    4508
 k-point  26 :   0.1429-0.0000 0.4286  plane waves:    4535
 k-point  27 :   0.2857-0.0000 0.4286  plane waves:    4549
 k-point  28 :   0.4286 0.0000 0.4286  plane waves:    4539
 k-point  29 :   0.1429 0.1429 0.4286  plane waves:    4550
 k-point  30 :   0.2857 0.1429 0.4286  plane waves:    4546
 k-point  31 :   0.4286 0.1429 0.4286  plane waves:    4534
 k-point  32 :   0.2857 0.2857 0.4286  plane waves:    4541

 maximum and minimum number of plane-waves per node :      2291     2242

 maximum number of plane-waves:      4561
 maximum index in each direction:
   IXMAX=   11   IYMAX=   11   IZMAX=   10
   IXMIN=  -11   IYMIN=  -11   IZMIN=  -10

 parallel 3D FFT for wavefunctions:
    minimum data exchange during FFTs selected (reduces bandwidth)
 parallel 3D FFT for charge:
    minimum data exchange during FFTs selected (reduces bandwidth)

 Broyden mixing: mesh for mixing (old mesh)
   NGX = 23   NGY = 23   NGZ = 21
  (NGX  = 96   NGY  = 96   NGZ  = 84)
  gives a total of  11109 points

 initial charge density was supplied:
 charge density of overlapping atoms calculated
 number of electron      78.0000000 magnetization
 keeping initial charge density in first step

 Maximum index for augmentation-charges        20235 (set IRDMAX)

 First call to EWALD:  gamma=   0.345
 Maximum number of real-space cells 3x 3x 3
 Maximum number of reciprocal cells 3x 3x 3

--------------------------------------- Iteration      1(   1)  ---------------------------------------

 eigenvalue-minimisations  :  3204
 total energy-change (2. order) : 0.5896752E+03  (-0.5037150E+04)
 number of electron      78.0000000 magnetization
 augmentation part       78.0000000 magnetization

 Free energy of the ion-electron system (eV)
  alpha Z        PSCENC =       383.87374344
  Ewald energy   TEWEN  =     -5224.08009819
  -Hartree energ DENC   =     -1480.57428841
  -exchange      EXHF   =         0.00000000
  -V(xc)+E(xc)   XCENC  =       335.16981037
  PAW double counting   =      4959.44850262    -4954.74203603
  entropy T*S    EENTRO =        -0.00134403
  eigenvalues    EBANDS =       129.69817106
  atomic energy  EATOM  =      6440.88277134
  free energy    TOTEN  =       589.67523217 eV

  energy without entropy =      589.67657621  energy(sigma->0) =      589.67590419

[...]

 eigenvalue-minimisations  :  3516
 total energy-change (2. order) :-0.7518510E+03  (-0.7359091E+03)
 number of electron      78.0000000 magnetization
 augmentation part       78.0000000 magnetization

[...]

 eigenvalue-minimisations  :     0
 total energy-change (2. order) :-0.9777068E-08  ( 0.5894741E-07)
 number of electron      78.0000001 magnetization
 augmentation part        7.1765899 magnetization

[...]

 eigenvalue-minimisations  :     0
 total energy-change (2. order) :-0.1020453E-08  (-0.2982297E-09)
 number of electron      78.0000001 magnetization
 augmentation part        7.1765890 magnetization

[...]

--------------------------------------- Iteration      1(  31)  ---------------------------------------

 eigenvalue-minimisations  :     0
 total energy-change (2. order) : 0.5020411E-09  (-0.4059013E-09)
 number of electron      78.0000001 magnetization
 augmentation part        7.1765886 magnetization

 Free energy of the ion-electron system (eV)
  alpha Z        PSCENC =       383.87374344
  Ewald energy   TEWEN  =     -5224.08009819
  -Hartree energ DENC   =     -1408.76896304
  -exchange      EXHF   =         0.00000000
  -V(xc)+E(xc)   XCENC  =       342.67830898
  PAW double counting   =      8806.94093914    -8814.90219411
  entropy T*S    EENTRO =        -0.00062462
  eigenvalues    EBANDS =      -692.96053577
  atomic energy  EATOM  =      6440.88277134
  free energy    TOTEN  =      -166.33665282 eV

  energy without entropy =     -166.33602820  energy(sigma->0) =     -166.33634051

  average scaling for gradient   1.2686

 average (electrostatic) potential at core
  the test charge radii are     0.7672  1.0818
  (the norm of the test charge is              1.0000)
       1 -25.7705       2 -25.7705       3 -25.7703       4 -25.7705       5 -25.7705
       6 -25.7703       7 -25.7705       8 -25.7703       9 -25.7705      10 -25.7705
      11 -25.7703      12 -25.7705      13 -78.6615      14 -77.7861      15 -78.6615

 E-fermi :   8.5886     XC(G=0): -13.0836     alpha+bet :-16.6664

 Fermi energy:         8.5886065953

 k-point     1 :       0.0000    0.0000    0.0000
  band No.  band energies     occupation
      1     -54.7380      2.00000
      2     -54.7054      2.00000
      3     -54.0555      2.00000
      4     -28.2716      2.00000
      5     -28.2473      2.00000
      6     -28.2473      2.00000
      7     -28.2092      2.00000
      8     -28.0527      2.00000
      9     -28.0527      2.00000
     10     -27.7573      2.00000
     11     -27.7573      2.00000
     12     -27.6632      2.00000
     13      -5.9868      2.00000
     14      -1.6087      2.00000
     15      -1.6086      2.00000
     16      -1.5103      2.00000
     17      -0.5798      2.00000
     18      -0.5797      2.00000
     19      -0.0521      2.00000
     20      -0.0520      2.00000
     21       0.1548      2.00000
     22       0.1549      2.00000
     23       0.3503      2.00000
     24       0.8688      2.00000
     25       1.4560      2.00000
     26       2.8453      2.00000
     27       2.8454      2.00000
     28       4.2826      2.00000
     29       4.6087      2.00000
     30       4.8967      2.00000
     31       4.8968      2.00000
     32       6.2859      2.00000
     33       6.2859      2.00000
     34       6.5574      2.00000
     35       6.5575      2.00000
     36       7.1128      2.00000
     37       7.8104      2.00000
     38       7.8104      2.00000
     39       8.1653      2.00000
     40       8.1653      2.00000
     41       9.5373      0.00000
     42       9.9558      0.00000
     43      11.0742      0.00000
     44      11.0743      0.00000
     45      11.1427      0.00000
     46      11.1427      0.00000
     47      11.6679      0.00000
     48      11.8305      0.00000

[...]

 k-point    32 :       0.2857    0.2857    0.4286
  band No.  band energies     occupation
      1     -54.7247      2.00000
      2     -54.7187      2.00000
      3     -54.0554      2.00000
      4     -28.2702      2.00000
      5     -28.2475      2.00000
      6     -28.2357      2.00000
      7     -28.1715      2.00000
      8     -28.1291      2.00000
      9     -28.0291      2.00000
     10     -27.7583      2.00000
     11     -27.7583      2.00000
     12     -27.6638      2.00000
     13      -4.0074      2.00000
     14      -3.3280      2.00000
     15      -3.2520      2.00000
     16      -2.6643      2.00000
     17      -2.1076      2.00000
     18      -1.1396      2.00000
     19       0.2525      2.00000
     20       0.3708      2.00000
     21       1.2598      2.00000
     22       1.2724      2.00000
     23       1.5155      2.00000
     24       2.0946      2.00000
     25       3.2091      2.00000
     26       3.6868      2.00000
     27       4.0319      2.00000
     28       4.0632      2.00000
     29       4.5188      2.00000
     30       4.5568      2.00000
     31       5.2023      2.00000
     32       5.6270      2.00000
     33       5.7216      2.00000
     34       5.7349      2.00000
     35       6.1092      2.00000
     36       6.5918      2.00000
     37       6.7432      2.00000
     38       7.3533      2.00000
     39       7.5483      2.00000
     40       7.8454      2.00000
     41       7.9616      2.00000
     42       9.7097      0.00000
     43       9.8387      0.00000
     44      11.0023      0.00000
     45      11.4686      0.00000
     46      11.5281      0.00000
     47      12.1182      0.00000
     48      12.5980      0.00000

 soft charge-density along one line, spin component           1
         0         1         2         3         4         5         6         7         8         9
 total charge-density along one line

------------------------ aborting loop because EDIFF is reached ----------------------------------------

  FREE ENERGIE OF THE ION-ELECTRON SYSTEM (eV)
  free  energy   TOTEN  =      -166.33665282 eV

  energy  without entropy=     -166.33602820  energy(sigma->0) =     -166.33634051

 writing wavefunctions