 vasp.6.2.0 18Jan21 (build Jan 05 2022 15:41:44) complex

 executed on             LinuxIFC date 2025.05.07  14:33:32

 INCAR:
   SYSTEM = routine with relax: pwdword
   ICHARG = 2
   NPAR = 6
   KPAR = 2
   NCORE = 2
   ADDGRID = T
   PREC = Acc
   ENCUT = 600
   METAGGA = R2SCAN
   LASPH = .TRUE.
   LMIXTAU = .FALSE.
   ALGO = A
   EDIFF = 1E-9
   NELM = 100
   NELMIN = 6
   IALGO = 38
   LREAL = F
   NSW = 0
   ISIF = -1
   ISMEAR = 0
   SIGMA = 0.02

 POTCAR:    PAW_PBE B 06Sep2000
 POTCAR:    PAW_PBE Mo_sv 02Feb2006
 POTCAR:    PAW_PBE Si 05Jan2001
|           W    W    AA    RRRRR   N    N  II  N    N   GGGG   !!!           |
|           W    W   A  A   R    R  NN   N  II  NN   N  G    G  !!!           |
|           W    W  A    A  R    R  N N  N  II  N N  N  G       !!!           |
|           W WW W  AAAAAA  RRRRR   N  N N  II  N  N N  G  GGG   !            |
|           WW  WW  A    A  R   R   N   NN  II  N   NN  G    G                |
|           W    W  A    A  R    R  N    N  II  N    N   GGGG   !!!           |
|     For optimal performance we recommend to set                             |
|       NCORE = 2 up to number-of-cores-per-socket                            |
|     This setting can greatly improve the performance of VASP for DFT.       |
|     The default, NCORE=1 might be grossly inefficient on modern             |
|     multi-core architectures or massively parallel machines. Do your        |
|     Unfortunately you need to use the default for GW and RPA                |
|     calculations (for HF NCORE is supported but not extensively tested      |
|     yet).                                                                   |

 POTCAR:    PAW_PBE B 06Sep2000
   VRHFIN =B: s2p1

   TITEL  = PAW_PBE B 06Sep2000
   POMASS =   10.811; ZVAL   =    3.000    mass and valenz
   ENMAX  =  318.614; ENMIN  =  238.960 eV

 POTCAR:    PAW_PBE Mo_sv 02Feb2006
   VRHFIN =Mo: 4p5s4d

   TITEL  = PAW_PBE Mo_sv 02Feb2006
   POMASS =   95.940; ZVAL   =   14.000    mass and valenz
   ENMAX  =  242.676; ENMIN  =  182.007 eV

 POTCAR:    PAW_PBE Si 05Jan2001
   VRHFIN =Si: s2p2

   TITEL  = PAW_PBE Si 05Jan2001
   POMASS =   28.085; ZVAL   =    4.000    mass and valenz
   ENMAX  =  245.345; ENMIN  =  184.009 eV

  PAW_PBE B 06Sep2000                   :
  PAW_PBE Mo_sv 02Feb2006               :
  PAW_PBE Si 05Jan2001                  :

 POSCAR: EA24
  positions in direct lattice

 METAGGA = R2SCA    LMAXTAU =  6    LMIXTAU =  F

 ion  position               nearest neighbor table
   1  0.250  0.750  0.500-   9 2.03  11 2.03  10 2.12  12 2.12
   2  0.750  0.250  0.500-  10 2.12  12 2.12  11 2.20   9 2.20
   3  0.250  0.250  0.000-  10 2.12  12 2.12  11 2.12   9 2.12   6 3.11   4 3.11   8 3.11   8 3.11
                             7 3.11   7 3.11   4 3.11   6 3.11
   4  0.737  0.237  0.975-  11 2.27   9 2.27   8 3.00   7 3.00   7 3.00   8 3.00   3 3.11   5 3.11
                             3 3.11   5 3.11
   5  0.750  0.750  0.000-  12 2.12  10 2.12  11 2.12   9 2.12   6 3.11   4 3.11   7 3.11   7 3.11
                             8 3.11   8 3.11   4 3.11   6 3.11
   6  0.263  0.763  0.025-   9 2.27  11 2.27   7 3.00   8 3.00   8 3.00   7 3.00   5 3.11   3 3.11
                             3 3.11   5 3.11
   7  0.237  0.263  0.500-  10 2.27  12 2.27   4 3.00   6 3.00   4 3.00   6 3.00   5 3.11   5 3.11
                             3 3.11   3 3.11
   8  0.763  0.737  0.500-  10 2.27  12 2.27   4 3.00   6 3.00   6 3.00   4 3.00   3 3.11   3 3.11
                             5 3.11   5 3.11
   9  0.010  0.510  0.020-   1 2.03   3 2.12   5 2.12   2 2.20   6 2.27   4 2.27  12 2.94  10 2.94
                            10 3.06  12 3.06
  10  0.500  0.500  0.500-   5 2.12   3 2.12   1 2.12   2 2.12   8 2.27   7 2.27   9 2.94  11 2.94
                            11 3.06   9 3.06
  11  0.490  0.990  0.980-   1 2.03   3 2.12   5 2.12   2 2.20   4 2.27   6 2.27  12 2.94  10 2.94
                            12 3.06  10 3.06
  12  0.000  0.000  0.500-   3 2.12   5 2.12   1 2.12   2 2.12   8 2.27   7 2.27   9 2.94  11 2.94
                            11 3.06   9 3.06

  LATTYP: Found a body centered tetragonal cell.
 ALAT       =     5.9952032197
 C/A-ratio  =     1.5128426513

  Lattice vectors:

 A1 = (   5.2499272615,   0.0000000000,  -3.3128417458)
 A2 = (  -1.5963933466,   5.0013262775,  -3.3128417458)
 A3 = (   0.0000000000,   0.0000000000,   6.2077900000)

Analysis of symmetry for initial positions (statically):
 Subroutine PRICEL returns:
 Original cell was already a primitive cell.

 Routine SETGRP: Setting up the symmetry group for a
 body centered tetragonal supercell.

 Subroutine GETGRP returns: Found  2 space group operations
 (whereof  1 operations were pure point group operations)
 out of a pool of 16 trial point group operations.

The static configuration has the point symmetry C_1 .
 The point group associated with its full space group is C_1h.

Analysis of symmetry for dynamics (positions and initial velocities):
 Subroutine PRICEL returns:
 Original cell was already a primitive cell.

 Routine SETGRP: Setting up the symmetry group for a
 body centered tetragonal supercell.

 Subroutine GETGRP returns: Found  2 space group operations
 (whereof  1 operations were pure point group operations)
 out of a pool of 16 trial point group operations.

The dynamic configuration has the point symmetry C_1 .
 The point group associated with its full space group is C_1h.

 Subroutine INISYM returns: Found  2 space group operations
 (whereof  1 operations are pure point group operations),
 and found     1 'primitive' translations

                                     Primitive cell

  volume of cell :     162.9955

  direct lattice vectors                    reciprocal lattice vectors
     5.249927262  0.000000000 -3.312841746     0.190478830  0.060799700  0.000000000
    -1.596393347  5.001326277 -3.312841746     0.000000000  0.199946963  0.000000000
     0.000000000  0.000000000  6.207790000     0.101650703  0.139149750  0.161087923

  length of vectors
     6.207790000  6.207790000  6.207790000     0.199946963  0.199946963  0.235891580

  position of ions in fractional coordinates (direct lattice)
     0.250000000  0.750000000  0.500000000
     0.750000000  0.250000000  0.500000000
     0.250000000  0.250000000  0.000000000
     0.737450000  0.237450000  0.974890000
     0.750000000  0.750000000  0.000000000
     0.262550000  0.762550000  0.025110000
     0.237450000  0.262550000  0.500000000
     0.762550000  0.737450000  0.500000000
     0.009700000  0.509700000  0.020010000
     0.500000000  0.500000000  0.500000000
     0.489690000  0.989690000  0.979990000
     0.000000000  0.000000000  0.500000000

  ion indices of the primitive-cell ions
   primitive index   ion index
                 1           1
                 2           2
                 3           3
                 4           4
                 5           5
                 6           6
                 7           7
                 8           8
                 9           9
                10          10
                11          11
                12          12

 KPOINTS: EA

Automatic generation of k-mesh.
 Grid dimensions read from file:
 generate k-points for:    7    7    8

 Generating k-lattice:

  Cartesian coordinates                     Fractional coordinates (reciprocal lattice)
     0.027211261  0.008685671  0.000000000     0.142857143  0.000000000  0.000000000
     0.000000000  0.028563852  0.000000000     0.000000000  0.142857143  0.000000000
     0.012706338  0.017393719  0.020135990    -0.000000000  0.000000000  0.125000000

  Length of vectors
     0.028563852  0.028563852  0.029486448

  Shift w.r.t. Gamma in fractional coordinates (k-lattice)
     0.000000000  0.000000000  0.000000000

 WARNING: IBZKPT: internal override: KBLOWUP is changed to .FALSE.
      ... skipping the blow-up phase ...

 Subroutine IBZKPT returns following result:

 Found    116 irreducible k-points:

 Following reciprocal coordinates:
            Coordinates               Weight
  0.000000  0.000000  0.000000      1.000000
  0.142857  0.000000  0.000000      4.000000
  0.285714 -0.000000  0.000000      4.000000
  0.428571  0.000000  0.000000      4.000000
  0.142857  0.142857  0.000000      2.000000
  0.285714  0.142857  0.000000      4.000000
  0.428571  0.142857  0.000000      4.000000
 -0.428571  0.142857  0.000000      4.000000
 -0.285714  0.142857  0.000000      4.000000
 -0.142857  0.142857  0.000000      2.000000
  0.285714  0.285714  0.000000      2.000000
  0.428571  0.285714  0.000000      4.000000
 -0.428571  0.285714  0.000000      4.000000
 -0.285714  0.285714  0.000000      2.000000
  0.428571  0.428571  0.000000      2.000000
 -0.428571  0.428571  0.000000      2.000000
  0.000000  0.000000  0.125000      2.000000
  0.142857  0.000000  0.125000      4.000000
  0.285714 -0.000000  0.125000      4.000000
  0.428571  0.000000  0.125000      4.000000
 -0.428571 -0.000000  0.125000      4.000000
 -0.285714  0.000000  0.125000      4.000000
 -0.142857  0.000000  0.125000      4.000000
  0.142857  0.142857  0.125000      2.000000
  0.285714  0.142857  0.125000      4.000000
  0.428571  0.142857  0.125000      4.000000
 -0.428571  0.142857  0.125000      4.000000
 -0.285714  0.142857  0.125000      4.000000
 -0.142857  0.142857  0.125000      4.000000
  0.285714  0.285714  0.125000      2.000000
  0.428571  0.285714  0.125000      4.000000
 -0.428571  0.285714  0.125000      4.000000
 -0.285714  0.285714  0.125000      4.000000
 -0.142857  0.285714  0.125000      4.000000
  0.428571  0.428571  0.125000      2.000000
 -0.428571  0.428571  0.125000      4.000000
 -0.285714  0.428571  0.125000      4.000000
 -0.142857  0.428571  0.125000      4.000000
 -0.428571 -0.428571  0.125000      2.000000
 -0.285714 -0.428571  0.125000      4.000000
 -0.142857 -0.428571  0.125000      4.000000
 -0.285714 -0.285714  0.125000      2.000000
 -0.142857 -0.285714  0.125000      4.000000
 -0.142857 -0.142857  0.125000      2.000000
  0.000000  0.000000  0.250000      2.000000
  0.142857  0.000000  0.250000      4.000000
  0.285714  0.000000  0.250000      4.000000
  0.428571  0.000000  0.250000      4.000000
 -0.428571 -0.000000  0.250000      4.000000
 -0.285714  0.000000  0.250000      4.000000
 -0.142857  0.000000  0.250000      4.000000
  0.142857  0.142857  0.250000      2.000000
  0.285714  0.142857  0.250000      4.000000
  0.428571  0.142857  0.250000      4.000000
 -0.428571  0.142857  0.250000      4.000000
 -0.285714  0.142857  0.250000      4.000000
 -0.142857  0.142857  0.250000      4.000000
  0.285714  0.285714  0.250000      2.000000
  0.428571  0.285714  0.250000      4.000000
 -0.428571  0.285714  0.250000      4.000000
[...]
  0.142857  0.000000  0.500000      4.000000
  0.285714  0.000000  0.500000      4.000000
  0.428571  0.000000  0.500000      4.000000
  0.142857  0.142857  0.500000      2.000000
  0.285714  0.142857  0.500000      4.000000
  0.428571  0.142857  0.500000      4.000000
 -0.428571  0.142857  0.500000      4.000000
 -0.285714  0.142857  0.500000      4.000000
[...]
  -0.14285714  0.28571429  0.12500000       0.010
   0.42857143  0.42857143  0.12500000       0.005
  -0.42857143  0.42857143  0.12500000       0.010
  -0.28571429  0.42857143  0.12500000       0.010
  -0.14285714  0.42857143  0.12500000       0.010
  -0.42857143 -0.42857143  0.12500000       0.005
  -0.28571429 -0.42857143  0.12500000       0.010
  -0.14285714 -0.42857143  0.12500000       0.010
  -0.28571429 -0.28571429  0.12500000       0.005
  -0.14285714 -0.28571429  0.12500000       0.010
  -0.14285714 -0.14285714  0.12500000       0.005
   0.00000000  0.00000000  0.25000000       0.005
   0.14285714  0.00000000  0.25000000       0.010
   0.28571429  0.00000000  0.25000000       0.010
   0.42857143  0.00000000  0.25000000       0.010
  -0.42857143 -0.00000000  0.25000000       0.010
  -0.28571429  0.00000000  0.25000000       0.010
  -0.14285714  0.00000000  0.25000000       0.010
   0.14285714  0.14285714  0.25000000       0.005
   0.28571429  0.14285714  0.25000000       0.010
   0.42857143  0.14285714  0.25000000       0.010
  -0.42857143  0.14285714  0.25000000       0.010
  -0.28571429  0.14285714  0.25000000       0.010
  -0.14285714  0.14285714  0.25000000       0.010
   0.28571429  0.28571429  0.25000000       0.005
   0.42857143  0.28571429  0.25000000       0.010
  -0.42857143  0.28571429  0.25000000       0.010
[...]
   0.14285714  0.00000000  0.50000000       0.010
   0.28571429  0.00000000  0.50000000       0.010
   0.42857143  0.00000000  0.50000000       0.010
   0.14285714  0.14285714  0.50000000       0.005
   0.28571429  0.14285714  0.50000000       0.010
   0.42857143  0.14285714  0.50000000       0.010
  -0.42857143  0.14285714  0.50000000       0.010
  -0.28571429  0.14285714  0.50000000       0.010
  -0.14285714  0.14285714  0.50000000       0.005
   0.28571429  0.28571429  0.50000000       0.005
   0.42857143  0.28571429  0.50000000       0.010
  -0.42857143  0.28571429  0.50000000       0.010
  -0.28571429  0.28571429  0.50000000       0.005
   0.42857143  0.42857143  0.50000000       0.005
  -0.42857143  0.42857143  0.50000000       0.005

 position of ions in fractional coordinates (direct lattice)
   0.25000000  0.75000000  0.50000000
   0.75000000  0.25000000  0.50000000
   0.25000000  0.25000000  0.00000000
   0.73745000  0.23745000  0.97489000
   0.75000000  0.75000000  0.00000000
   0.26255000  0.76255000  0.02511000
   0.23745000  0.26255000  0.50000000
   0.76255000  0.73745000  0.50000000
   0.00970000  0.50970000  0.02001000
   0.50000000  0.50000000  0.50000000
   0.48969000  0.98969000  0.97999000
   0.00000000  0.00000000  0.50000000

 position of ions in cartesian coordinates  (Angst):
   0.11518681  3.75099471 -0.20894675
   3.53834711  1.25033157 -0.20894675
   0.91338348  1.25033157 -1.65642087
   3.49249526  1.18756492  2.82222298
   2.74015044  3.75099471 -4.96926262
   0.16103866  3.81376135 -3.24011647
   0.82746216  1.31309821  1.44747413
   2.82607176  3.68822806 -1.86536762
  -0.76275739  2.54917600 -1.59647212
   1.82676696  2.50066314 -0.20894675
   0.99090235  4.94976260  1.18262030
   0.00000000  0.00000000  3.10389500

 k-point   1 :   0.0000 0.0000 0.0000  plane waves:    5399
 k-point   2 :   0.1429 0.0000 0.0000  plane waves:    5440
 k-point   3 :   0.2857-0.0000 0.0000  plane waves:    5443
 k-point   4 :   0.4286 0.0000 0.0000  plane waves:    5441
 k-point   5 :   0.1429 0.1429 0.0000  plane waves:    5437
 k-point   6 :   0.2857 0.1429 0.0000  plane waves:    5441
 k-point   7 :   0.4286 0.1429 0.0000  plane waves:    5444
 k-point   8 :  -0.4286 0.1429 0.0000  plane waves:    5451
 k-point   9 :  -0.2857 0.1429 0.0000  plane waves:    5456
 k-point  10 :  -0.1429 0.1429 0.0000  plane waves:    5443
 k-point  11 :   0.2857 0.2857 0.0000  plane waves:    5438
 k-point  12 :   0.4286 0.2857 0.0000  plane waves:    5443
 k-point  13 :  -0.4286 0.2857 0.0000  plane waves:    5445
 k-point  14 :  -0.2857 0.2857 0.0000  plane waves:    5441
 k-point  15 :   0.4286 0.4286 0.0000  plane waves:    5440
 k-point  16 :  -0.4286 0.4286 0.0000  plane waves:    5443
 k-point  17 :   0.0000 0.0000 0.1250  plane waves:    5439
 k-point  18 :   0.1429 0.0000 0.1250  plane waves:    5461
 k-point  19 :   0.2857-0.0000 0.1250  plane waves:    5445
 k-point  20 :   0.4286 0.0000 0.1250  plane waves:    5445
 k-point  21 :  -0.4286-0.0000 0.1250  plane waves:    5447
 k-point  22 :  -0.2857 0.0000 0.1250  plane waves:    5439
 k-point  23 :  -0.1429 0.0000 0.1250  plane waves:    5431
 k-point  24 :   0.1429 0.1429 0.1250  plane waves:    5447
 k-point  25 :   0.2857 0.1429 0.1250  plane waves:    5447
 k-point  26 :   0.4286 0.1429 0.1250  plane waves:    5448
 k-point  27 :  -0.4286 0.1429 0.1250  plane waves:    5451
 k-point  28 :  -0.2857 0.1429 0.1250  plane waves:    5461
 k-point  29 :  -0.1429 0.1429 0.1250  plane waves:    5453
 k-point  30 :   0.2857 0.2857 0.1250  plane waves:    5452
 k-point  31 :   0.4286 0.2857 0.1250  plane waves:    5446
 k-point  32 :  -0.4286 0.2857 0.1250  plane waves:    5450
 k-point  33 :  -0.2857 0.2857 0.1250  plane waves:    5451
 k-point  34 :  -0.1429 0.2857 0.1250  plane waves:    5437
 k-point  35 :   0.4286 0.4286 0.1250  plane waves:    5432
 k-point  36 :  -0.4286 0.4286 0.1250  plane waves:    5438
 k-point  37 :  -0.2857 0.4286 0.1250  plane waves:    5437
 k-point  38 :  -0.1429 0.4286 0.1250  plane waves:    5437
 k-point  39 :  -0.4286-0.4286 0.1250  plane waves:    5450
 k-point  40 :  -0.2857-0.4286 0.1250  plane waves:    5425
 k-point  41 :  -0.1429-0.4286 0.1250  plane waves:    5443
 k-point  42 :  -0.2857-0.2857 0.1250  plane waves:    5429
 k-point  43 :  -0.1429-0.2857 0.1250  plane waves:    5421
 k-point  44 :  -0.1429-0.1429 0.1250  plane waves:    5412
 k-point  45 :   0.0000 0.0000 0.2500  plane waves:    5439
 k-point  46 :   0.1429 0.0000 0.2500  plane waves:    5453
 k-point  47 :   0.2857 0.0000 0.2500  plane waves:    5454
 k-point  48 :   0.4286 0.0000 0.2500  plane waves:    5445
 k-point  49 :  -0.4286-0.0000 0.2500  plane waves:    5437
 k-point  50 :  -0.2857 0.0000 0.2500  plane waves:    5446
 k-point  51 :  -0.1429 0.0000 0.2500  plane waves:    5456
 k-point  52 :   0.1429 0.1429 0.2500  plane waves:    5454
 k-point  53 :   0.2857 0.1429 0.2500  plane waves:    5446
 k-point  54 :   0.4286 0.1429 0.2500  plane waves:    5445
 k-point  55 :  -0.4286 0.1429 0.2500  plane waves:    5453
 k-point  56 :  -0.2857 0.1429 0.2500  plane waves:    5439
 k-point  57 :  -0.1429 0.1429 0.2500  plane waves:    5449
 k-point  58 :   0.2857 0.2857 0.2500  plane waves:    5460
 k-point  59 :   0.4286 0.2857 0.2500  plane waves:    5450
 k-point  60 :  -0.4286 0.2857 0.2500  plane waves:    5440
[...]
 k-point 102 :   0.1429 0.0000 0.5000  plane waves:    5439
 k-point 103 :   0.2857 0.0000 0.5000  plane waves:    5445
 k-point 104 :   0.4286 0.0000 0.5000  plane waves:    5439
 k-point 105 :   0.1429 0.1429 0.5000  plane waves:    5458
 k-point 106 :   0.2857 0.1429 0.5000  plane waves:    5439
 k-point 107 :   0.4286 0.1429 0.5000  plane waves:    5448
 k-point 108 :  -0.4286 0.1429 0.5000  plane waves:    5437
 k-point 109 :  -0.2857 0.1429 0.5000  plane waves:    5442
 k-point 110 :  -0.1429 0.1429 0.5000  plane waves:    5438
 k-point 111 :   0.2857 0.2857 0.5000  plane waves:    5436
 k-point 112 :   0.4286 0.2857 0.5000  plane waves:    5437
 k-point 113 :  -0.4286 0.2857 0.5000  plane waves:    5419
 k-point 114 :  -0.2857 0.2857 0.5000  plane waves:    5424
 k-point 115 :   0.4286 0.4286 0.5000  plane waves:    5417
 k-point 116 :  -0.4286 0.4286 0.5000  plane waves:    5434

 maximum and minimum number of plane-waves per node :      2762     2673

 maximum number of plane-waves:      5461
 maximum index in each direction:
   IXMAX=   12   IYMAX=   12   IZMAX=   12
   IXMIN=  -12   IYMIN=  -12   IZMIN=  -12

 parallel 3D FFT for wavefunctions:
    minimum data exchange during FFTs selected (reduces bandwidth)
 parallel 3D FFT for charge:
    minimum data exchange during FFTs selected (reduces bandwidth)

 Broyden mixing: mesh for mixing (old mesh)
   NGX = 25   NGY = 25   NGZ = 25
  (NGX  =100   NGY  =100   NGZ  =100)
  gives a total of  15625 points

 initial charge density was supplied:
 charge density of overlapping atoms calculated
 number of electron     106.0000000 magnetization
 keeping initial charge density in first step

 Maximum index for augmentation-charges        21858 (set IRDMAX)

 First call to EWALD:  gamma=   0.324
 Maximum number of real-space cells 3x 3x 3
 Maximum number of reciprocal cells 3x 3x 3

--------------------------------------- Iteration      1(   1)  ---------------------------------------

 eigenvalue-minimisations  : 15504
 total energy-change (2. order) : 0.1104500E+04  (-0.7193778E+04)
 number of electron     106.0000000 magnetization
 augmentation part      106.0000000 magnetization

 Free energy of the ion-electron system (eV)
  alpha Z        PSCENC =       565.34427319
  Ewald energy   TEWEN  =     -9537.86414705
  -Hartree energ DENC   =     -2451.98457879
  -exchange      EXHF   =         0.00000000
  -V(xc)+E(xc)   XCENC  =       461.78169803
  PAW double counting   =      9333.50011946    -9270.82734050
  entropy T*S    EENTRO =        -0.00073803
  eigenvalues    EBANDS =       276.25047813
  atomic energy  EATOM  =     11728.30056431
  free energy    TOTEN  =      1104.50032875 eV

  energy without entropy =     1104.50106678  energy(sigma->0) =     1104.50069776

[...]

 eigenvalue-minimisations  : 17202
 total energy-change (2. order) :-0.1281625E+04  (-0.1256549E+04)
 number of electron     106.0000000 magnetization
 augmentation part      106.0000000 magnetization

[...]

 eigenvalue-minimisations  :     0
 total energy-change (2. order) :-0.3490641E-08  ( 0.5579123E-07)
 number of electron     106.0000001 magnetization
 augmentation part       13.8279038 magnetization

[...]

 eigenvalue-minimisations  :     0
 total energy-change (2. order) :-0.1669650E-07  (-0.2911419E-09)
 number of electron     106.0000001 magnetization
 augmentation part       13.8279066 magnetization

[...]

--------------------------------------- Iteration      1(  43)  ---------------------------------------

 eigenvalue-minimisations  :     0
 total energy-change (2. order) : 0.6475602E-09  (-0.5277506E-10)
 number of electron     106.0000001 magnetization
 augmentation part       13.8279065 magnetization

 Free energy of the ion-electron system (eV)
  alpha Z        PSCENC =       565.34427319
  Ewald energy   TEWEN  =     -9537.86414705
  -Hartree energ DENC   =     -2331.03701554
  -exchange      EXHF   =         0.00000000
  -V(xc)+E(xc)   XCENC  =       472.84715441
  PAW double counting   =     16422.21648938   -16376.69443826
  entropy T*S    EENTRO =        -0.00253255
  eigenvalues    EBANDS =     -1127.31148203
  atomic energy  EATOM  =     11728.30056431
  free energy    TOTEN  =      -184.20113413 eV

  energy without entropy =     -184.19860159  energy(sigma->0) =     -184.19986786

  average scaling for gradient   1.0347

 average (electrostatic) potential at core
  the test charge radii are     0.7672  1.0818  0.9892
  (the norm of the test charge is              1.0000)
       1 -24.3861       2 -24.6229       3 -74.8276       4 -75.6869       5 -74.8276
       6 -75.6857       7 -75.6816       8 -75.6816       9 -81.0021      10 -81.0184
      11 -81.0032      12 -81.0184

 E-fermi :  10.9879     XC(G=0): -13.4159     alpha+bet :-18.7491

 Fermi energy:        10.9878540197

 k-point     1 :       0.0000    0.0000    0.0000
  band No.  band energies     occupation
      1     -51.7766      2.00000
      2     -51.7341      2.00000
      3     -51.7302      2.00000
      4     -51.6932      2.00000
      5     -51.1563      2.00000
      6     -51.1542      2.00000
      7     -25.4792      2.00000
      8     -25.4781      2.00000
      9     -25.3888      2.00000
     10     -25.3718      2.00000
     11     -25.3694      2.00000
     12     -25.3690      2.00000
     13     -25.3673      2.00000
     14     -25.2318      2.00000
     15     -25.1117      2.00000
     16     -25.1078      2.00000
     17     -25.0020      2.00000
     18     -25.0000      2.00000
     19     -24.9211      2.00000
     20     -24.8808      2.00000
     21     -24.8792      2.00000
     22     -24.8477      2.00000
     23     -24.2410      2.00000
     24     -24.2407      2.00000
     25      -2.5999      2.00000
     26       0.0448      2.00000
     27       1.7985      2.00000
     28       2.4719      2.00000
     29       2.4876      2.00000
     30       4.6579      2.00000
     31       5.0376      2.00000
     32       5.0493      2.00000
     33       5.4594      2.00000
     34       5.5009      2.00000
     35       6.0861      2.00000
     36       6.3228      2.00000
     37       6.5618      2.00000
     38       7.0463      2.00000
     39       7.0472      2.00000
     40       7.1740      2.00000
     41       7.2857      2.00000
     42       8.0433      2.00000
     43       8.6154      2.00000
     44       8.6175      2.00000
     45       9.1115      2.00000
     46       9.6387      2.00000
     47       9.9608      2.00000
     48      10.6090      2.00000
     49      10.7548      2.00000
     50      10.7657      2.00000
     51      10.8134      2.00000
     52      10.8392      2.00000
     53      10.9291      1.99997
     54      10.9872      1.03779
     55      11.1178      0.00000
     56      11.2091      0.00000
     57      11.2164      0.00000
     58      12.8071      0.00000
     59      13.2706      0.00000
     60      13.3925      0.00000
     61      13.4036      0.00000
     62      13.8067      0.00000
     63      13.8777      0.00000
     64      14.3493      0.00000
     65      14.5290      0.00000
     66      14.7462      0.00000

[...]

 k-point   116 :      -0.4286    0.4286    0.5000
  band No.  band energies     occupation
      1     -51.7721      2.00000
      2     -51.7349      2.00000
      3     -51.7310      2.00000
      4     -51.6935      2.00000
      5     -51.1593      2.00000
      6     -51.1544      2.00000
      7     -25.3770      2.00000
      8     -25.3497      2.00000
      9     -25.3097      2.00000
     10     -25.2989      2.00000
     11     -25.2977      2.00000
     12     -25.2795      2.00000
     13     -25.2764      2.00000
     14     -25.2593      2.00000
     15     -25.1960      2.00000
     16     -25.1903      2.00000
     17     -25.1434      2.00000
     18     -25.1270      2.00000
     19     -24.9284      2.00000
     20     -24.9214      2.00000
     21     -24.9193      2.00000
     22     -24.8520      2.00000
     23     -24.3033      2.00000
     24     -24.3003      2.00000
     25      -1.7933      2.00000
     26       0.1966      2.00000
     27       1.1369      2.00000
     28       1.4300      2.00000
     29       2.9269      2.00000
     30       4.0577      2.00000
     31       4.6471      2.00000
     32       4.6778      2.00000
     33       5.7382      2.00000
     34       6.4932      2.00000
     35       6.5425      2.00000
     36       7.1971      2.00000
     37       7.4617      2.00000
     38       7.7492      2.00000
     39       7.8272      2.00000
     40       7.8535      2.00000
     41       8.1084      2.00000
     42       8.2040      2.00000
     43       8.4517      2.00000
     44       8.5062      2.00000
     45       8.5369      2.00000
     46       8.8539      2.00000
     47       9.0274      2.00000
     48       9.1630      2.00000
     49       9.1850      2.00000
     50       9.9201      2.00000
     51      10.0771      2.00000
     52      10.5463      2.00000
     53      10.8737      2.00000
     54      11.1272      0.00000
     55      11.3143      0.00000
     56      11.5617      0.00000
     57      11.8975      0.00000
     58      11.9739      0.00000
     59      11.9740      0.00000
     60      12.1221      0.00000
     61      12.3328      0.00000
     62      13.1807      0.00000
     63      14.0323      0.00000
     64      14.2274      0.00000
     65      14.7109      0.00000
     66      15.3228      0.00000

 soft charge-density along one line, spin component           1
         0         1         2         3         4         5         6         7         8         9
 total charge-density along one line

------------------------ aborting loop because EDIFF is reached ----------------------------------------

  FREE ENERGIE OF THE ION-ELECTRON SYSTEM (eV)
  free  energy   TOTEN  =      -184.20113413 eV

  energy  without entropy=     -184.19860159  energy(sigma->0) =     -184.19986786

 writing wavefunctions