 vasp.6.2.0 18Jan21 (build Jan 05 2022 15:41:44) complex

 executed on             LinuxIFC date 2025.05.07  19:52:14

 INCAR:
   SYSTEM = routine with relax: pwdword
   ICHARG = 2
   NPAR = 6
   KPAR = 2
   NCORE = 2
   ADDGRID = T
   PREC = Acc
   ENCUT = 600
   METAGGA = R2SCAN
   LASPH = .TRUE.
   LMIXTAU = .FALSE.
   ALGO = A
   EDIFF = 1E-9
   NELM = 100
   NELMIN = 6
   IALGO = 38
   LREAL = F
   NSW = 0
   ISIF = -1
   ISMEAR = 0
   SIGMA = 0.02
   SYMPREC = 1E-4

 POTCAR:    PAW_PBE B 06Sep2000
 POTCAR:    PAW_PBE Mo_sv 02Feb2006
 POTCAR:    PAW_PBE Si 05Jan2001
|           W    W    AA    RRRRR   N    N  II  N    N   GGGG   !!!           |
|           W    W   A  A   R    R  NN   N  II  NN   N  G    G  !!!           |
|           W    W  A    A  R    R  N N  N  II  N N  N  G       !!!           |
|           W WW W  AAAAAA  RRRRR   N  N N  II  N  N N  G  GGG   !            |
|           WW  WW  A    A  R   R   N   NN  II  N   NN  G    G                |
|           W    W  A    A  R    R  N    N  II  N    N   GGGG   !!!           |
|     For optimal performance we recommend to set                             |
|       NCORE = 2 up to number-of-cores-per-socket                            |
|     This setting can greatly improve the performance of VASP for DFT.       |
|     The default, NCORE=1 might be grossly inefficient on modern             |
|     multi-core architectures or massively parallel machines. Do your        |
|     Unfortunately you need to use the default for GW and RPA                |
|     calculations (for HF NCORE is supported but not extensively tested      |
|     yet).                                                                   |

 POTCAR:    PAW_PBE B 06Sep2000
   VRHFIN =B: s2p1

   TITEL  = PAW_PBE B 06Sep2000
   POMASS =   10.811; ZVAL   =    3.000    mass and valenz
   ENMAX  =  318.614; ENMIN  =  238.960 eV

 POTCAR:    PAW_PBE Mo_sv 02Feb2006
   VRHFIN =Mo: 4p5s4d

   TITEL  = PAW_PBE Mo_sv 02Feb2006
   POMASS =   95.940; ZVAL   =   14.000    mass and valenz
   ENMAX  =  242.676; ENMIN  =  182.007 eV

 POTCAR:    PAW_PBE Si 05Jan2001
   VRHFIN =Si: s2p2

   TITEL  = PAW_PBE Si 05Jan2001
   POMASS =   28.085; ZVAL   =    4.000    mass and valenz
   ENMAX  =  245.345; ENMIN  =  184.009 eV

  PAW_PBE B 06Sep2000                   :
  PAW_PBE Mo_sv 02Feb2006               :
  PAW_PBE Si 05Jan2001                  :

 POSCAR: EA179
  positions in direct lattice

 METAGGA = R2SCA    LMAXTAU =  6    LMIXTAU =  F

 ion  position               nearest neighbor table
   1  0.500  0.000  0.000-  14 2.01  15 2.01   5 2.76   7 2.76
   2  0.500  0.500  0.500-  17 2.01  18 2.01   9 2.76  11 2.76
   3  0.000  0.500  0.000-  16 2.01  20 2.01   5 2.76   7 2.76
   4  0.000  0.000  0.500-  13 2.01  19 2.01   9 2.76  11 2.76
   5  0.293  0.793  0.085-  20 1.47  15 1.47   8 1.64   3 2.76   1 2.76  12 2.89   6 2.89
   6  0.648  0.852  0.500-   9 1.64  15 2.56  14 2.56  16 2.56  20 2.56  19 2.76  17 2.76   7 2.89
                             5 2.89  12 3.35
   7  0.707  0.207  0.915-  16 1.47  14 1.47  10 1.64   3 2.76   1 2.76   6 2.89  12 2.89
   8  0.148  0.648  0.796-   5 1.64  18 2.56  19 2.56  13 2.56  17 2.56  15 2.76  20 2.76   9 2.89
                            11 2.89  10 3.35
   9  0.793  0.707  0.500-  17 1.47  19 1.47   6 1.64   4 2.76   2 2.76   8 2.89  10 2.89
  10  0.852  0.352  0.204-   7 1.64  13 2.56  17 2.56  19 2.56  18 2.56  14 2.76  16 2.76   9 2.89
                            11 2.89   8 3.35
  11  0.207  0.293  0.500-  13 1.47  18 1.47  12 1.64   4 2.76   2 2.76   8 2.89  10 2.89
  12  0.352  0.148  0.500-  11 1.64  14 2.56  15 2.56  20 2.56  16 2.56  18 2.76  13 2.76   5 2.89
                             7 2.89   6 3.35
  13  0.022  0.256  0.500-  11 1.47   4 2.01  18 2.41  10 2.56   8 2.56  12 2.76  17 3.02
  14  0.522  0.022  0.766-   7 1.47   1 2.01  16 2.41  12 2.56   6 2.56  10 2.76  20 3.02
  15  0.478  0.978  0.234-   5 1.47   1 2.01  20 2.41   6 2.56  12 2.56   8 2.76  16 3.02
  16  0.744  0.244  0.766-   7 1.47   3 2.01  14 2.41   6 2.56  12 2.56  10 2.76  15 3.02
  17  0.756  0.522  0.500-   9 1.47   2 2.01  19 2.41  10 2.56   8 2.56   6 2.76  13 3.02
  18  0.244  0.478  0.500-  11 1.47   2 2.01  13 2.41   8 2.56  10 2.56  12 2.76  19 3.02
  19  0.978  0.744  0.500-   9 1.47   4 2.01  17 2.41   8 2.56  10 2.56   6 2.76  18 3.02
  20  0.256  0.756  0.234-   5 1.47   3 2.01  15 2.41  12 2.56   6 2.56   8 2.76  14 3.02

  LATTYP: Found a body centered tetragonal cell.
 ALAT       =     8.0197464432
 C/A-ratio  =     1.3551349631

  Lattice vectors:

 A1 = (   6.8957614660,   0.0000000000,  -3.7595350729)
 A2 = (  -2.4311708153,   6.4529787434,  -3.7595350729)
 A3 = (   0.0000000000,   0.0000000000,   7.8540200000)

Analysis of symmetry for initial positions (statically):
 Subroutine PRICEL returns:
 Original cell was already a primitive cell.

 Routine SETGRP: Setting up the symmetry group for a
 body centered tetragonal supercell.

 Subroutine GETGRP returns: Found 16 space group operations
 (whereof  8 operations were pure point group operations)
 out of a pool of 16 trial point group operations.

The static configuration has the point symmetry C_4h.
 The point group associated with its full space group is D_4h.

Analysis of symmetry for dynamics (positions and initial velocities):
 Subroutine PRICEL returns:
 Original cell was already a primitive cell.

 Routine SETGRP: Setting up the symmetry group for a
 body centered tetragonal supercell.

 Subroutine GETGRP returns: Found 16 space group operations
 (whereof  8 operations were pure point group operations)
 out of a pool of 16 trial point group operations.

The dynamic configuration has the point symmetry C_4h.
 The point group associated with its full space group is D_4h.

 Subroutine INISYM returns: Found 16 space group operations
 (whereof  8 operations are pure point group operations),
 and found     1 'primitive' translations

                                     Primitive cell

  volume of cell :     349.4898

  direct lattice vectors                    reciprocal lattice vectors
     6.895761466  0.000000000 -3.759535073     0.145016617  0.054635259  0.000000000
    -2.431170815  6.452978743 -3.759535073     0.000000000  0.154967193  0.000000000
     0.000000000  0.000000000  7.854020000     0.069416052  0.100331775  0.127323333

  length of vectors
     7.854020000  7.854020000  7.854020000     0.154967193  0.154967193  0.176341386

  position of ions in fractional coordinates (direct lattice)
     0.500000000  0.000000000  0.000000000
     0.500000000  0.500000000  0.500000000
     1.000000000  0.500000000  1.000000000
     0.000000000  0.000000000  0.500000000
     0.292550000  0.792550000  0.085110000
     0.647810000  0.852190000  0.500000000
     0.707450000  0.207450000  0.914890000
     0.147810000  0.647810000  0.795610000
     0.792550000  0.707450000  0.500000000
     0.852190000  0.352190000  0.204390000
     0.207450000  0.292550000  0.500000000
     0.352190000  0.147810000  0.500000000
     0.022270000  0.256310000  0.500000000
     0.522270000  0.022270000  0.765960000
     0.477730000  0.977730000  0.234040000
     0.743690000  0.243690000  0.765960000
     0.756310000  0.522270000  0.500000000
     0.243690000  0.477730000  0.500000000
     0.977730000  0.743690000  0.500000000
     0.256310000  0.756310000  0.234040000

  ion indices of the primitive-cell ions
   primitive index   ion index
                 1           1
                 2           2
                 3           3
                 4           4
                 5           5
                 6           6
                 7           7
                 8           8
                 9           9
                10          10
                11          11
                12          12
                13          13
                14          14
                15          15
                16          16
                17          17
                18          18
                19          19
                20          20

 KPOINTS: EA

Automatic generation of k-mesh.
 Grid dimensions read from file:
 generate k-points for:    6    6    6

 Generating k-lattice:

  Cartesian coordinates                     Fractional coordinates (reciprocal lattice)
     0.024169436  0.009105877  0.000000000     0.166666667  0.000000000  0.000000000
     0.000000000  0.025827865  0.000000000     0.000000000  0.166666667  0.000000000
     0.011569342  0.016721963  0.021220555     0.000000000  0.000000000  0.166666667

  Length of vectors
     0.025827865  0.025827865  0.029390231

  Shift w.r.t. Gamma in fractional coordinates (k-lattice)
     0.000000000  0.000000000  0.000000000

 Subroutine IBZKPT returns following result:

 Found     30 irreducible k-points:

 Following reciprocal coordinates:
            Coordinates               Weight
  0.000000  0.000000  0.000000      1.000000
  0.166667  0.000000  0.000000      8.000000
  0.333333  0.000000  0.000000      8.000000
  0.500000  0.000000  0.000000      4.000000
  0.166667  0.166667  0.000000      8.000000
  0.333333  0.166667  0.000000     16.000000
  0.500000  0.166667  0.000000     16.000000
 -0.333333  0.166667  0.000000     16.000000
 -0.166667  0.166667  0.000000      4.000000
  0.333333  0.333333  0.000000      8.000000
  0.500000  0.333333  0.000000     16.000000
 -0.333333  0.333333  0.000000      4.000000
  0.500000  0.500000  0.000000      2.000000
  0.166667  0.166667  0.166667      8.000000
  0.333333  0.166667  0.166667      8.000000
 -0.166667  0.166667  0.166667      4.000000
  0.333333  0.333333  0.166667      4.000000
 -0.333333  0.333333  0.166667      8.000000
 -0.166667  0.333333  0.166667      8.000000
  0.500000  0.500000  0.166667      4.000000
 -0.333333  0.500000  0.166667     16.000000
 -0.166667  0.500000  0.166667      8.000000
 -0.333333 -0.333333  0.166667      8.000000
 -0.166667 -0.333333  0.166667      8.000000
 -0.166667 -0.166667  0.166667      2.000000
 -0.333333  0.333333  0.333333      4.000000
  0.500000  0.500000  0.333333      4.000000
 -0.333333  0.500000  0.333333      8.000000
 -0.333333 -0.333333  0.333333      2.000000
  0.500000  0.500000  0.500000      1.000000

 Following cartesian coordinates:
            Coordinates               Weight
  0.000000  0.000000  0.000000      1.000000
  0.024169  0.009106  0.000000      8.000000
  0.048339  0.018212  0.000000      8.000000
  0.072508  0.027318  0.000000      4.000000
  0.024169  0.034934  0.000000      8.000000
  0.048339  0.044040  0.000000     16.000000
  0.072508  0.053145  0.000000     16.000000
 -0.048339  0.007616  0.000000     16.000000
 -0.024169  0.016722  0.000000      4.000000
  0.048339  0.069867  0.000000      8.000000
  0.072508  0.078973  0.000000     16.000000
 -0.048339  0.033444  0.000000      4.000000
  0.072508  0.104801  0.000000      2.000000
  0.035739  0.051656  0.021221      8.000000
  0.059908  0.060762  0.021221      8.000000
 -0.012600  0.033444  0.021221      4.000000
  0.059908  0.086589  0.021221      4.000000
 -0.036770  0.050166  0.021221      8.000000
 -0.012600  0.059272  0.021221      8.000000
[...]
 use of overlap-Matrix (Vanderbilt PP)
 Gauss-broadening in eV      SIGMA  =   0.02

  energy-cutoff  :      600.00
  volume of cell :      349.49
      direct lattice vectors                 reciprocal lattice vectors
     6.895761466  0.000000000 -3.759535073     0.145016617  0.054635259  0.000000000
    -2.431170815  6.452978743 -3.759535073     0.000000000  0.154967193  0.000000000
     0.000000000  0.000000000  7.854020000     0.069416052  0.100331775  0.127323333

  length of vectors
     7.854020000  7.854020000  7.854020000     0.154967193  0.154967193  0.176341386

 k-points in units of 2pi/SCALE and weight: EA
   0.00000000  0.00000000  0.00000000       0.005
   0.02416944  0.00910588  0.00000000       0.037
   0.04833887  0.01821175  0.00000000       0.037
   0.07250831  0.02731763  0.00000000       0.019
   0.02416944  0.03493374  0.00000000       0.037
   0.04833887  0.04403962  0.00000000       0.074
   0.07250831  0.05314550  0.00000000       0.074
  -0.04833887  0.00761611  0.00000000       0.074
  -0.02416944  0.01672199  0.00000000       0.019
   0.04833887  0.06986748  0.00000000       0.037
   0.07250831  0.07897336  0.00000000       0.074
  -0.04833887  0.03344398  0.00000000       0.019
   0.07250831  0.10480123  0.00000000       0.009
   0.03573878  0.05165570  0.02122056       0.037
   0.05990821  0.06076158  0.02122056       0.037
  -0.01260009  0.03344395  0.02122056       0.019
   0.05990821  0.08658945  0.02122056       0.019
  -0.03676953  0.05016594  0.02122056       0.037
  -0.01260009  0.05927182  0.02122056       0.037
   0.08407765  0.12152319  0.02122056       0.019
  -0.03676953  0.07599381  0.02122056       0.074
  -0.01260009  0.08509968  0.02122056       0.037
  -0.03676953 -0.05314552  0.02122056       0.037
  -0.01260009 -0.04403964  0.02122056       0.037
  -0.01260009 -0.01821178  0.02122056       0.009
  -0.02520019  0.06688790  0.04244111       0.019
   0.09564699  0.13824515  0.04244111       0.019
  -0.02520019  0.09271577  0.04244111       0.037
  -0.02520019 -0.03642356  0.04244111       0.009
   0.10721633  0.15496711  0.06366167       0.005

 k-points in reciprocal lattice and weights: EA
   0.00000000  0.00000000  0.00000000       0.005
   0.16666667  0.00000000  0.00000000       0.037
   0.33333333  0.00000000  0.00000000       0.037
   0.50000000  0.00000000  0.00000000       0.019
   0.16666667  0.16666667  0.00000000       0.037
   0.33333333  0.16666667  0.00000000       0.074
   0.50000000  0.16666667  0.00000000       0.074
  -0.33333333  0.16666667  0.00000000       0.074
  -0.16666667  0.16666667  0.00000000       0.019
   0.33333333  0.33333333  0.00000000       0.037
   0.50000000  0.33333333  0.00000000       0.074
  -0.33333333  0.33333333  0.00000000       0.019
   0.50000000  0.50000000  0.00000000       0.009
   0.16666667  0.16666667  0.16666667       0.037
   0.33333333  0.16666667  0.16666667       0.037
  -0.16666667  0.16666667  0.16666667       0.019
   0.33333333  0.33333333  0.16666667       0.019
  -0.33333333  0.33333333  0.16666667       0.037
  -0.16666667  0.33333333  0.16666667       0.037
   0.50000000  0.50000000  0.16666667       0.019
  -0.33333333  0.50000000  0.16666667       0.074
  -0.16666667  0.50000000  0.16666667       0.037
  -0.33333333 -0.33333333  0.16666667       0.037
  -0.16666667 -0.33333333  0.16666667       0.037
  -0.16666667 -0.16666667  0.16666667       0.009
  -0.33333333  0.33333333  0.33333333       0.019
   0.50000000  0.50000000  0.33333333       0.019
  -0.33333333  0.50000000  0.33333333       0.037
  -0.33333333 -0.33333333  0.33333333       0.009
   0.50000000  0.50000000  0.50000000       0.005

 position of ions in fractional coordinates (direct lattice)
   0.50000000  0.00000000  0.00000000
   0.50000000  0.50000000  0.50000000
   0.00000000  0.50000000  0.00000000
   0.00000000  0.00000000  0.50000000
   0.29255000  0.79255000  0.08511000
   0.64781000  0.85219000  0.50000000
   0.70745000  0.20745000  0.91489000
   0.14781000  0.64781000  0.79561000
   0.79255000  0.70745000  0.50000000
   0.85219000  0.35219000  0.20439000
   0.20745000  0.29255000  0.50000000
   0.35219000  0.14781000  0.50000000
   0.02227000  0.25631000  0.50000000
   0.52227000  0.02227000  0.76596000
   0.47773000  0.97773000  0.23404000
   0.74369000  0.24369000  0.76596000
   0.75631000  0.52227000  0.50000000
   0.24369000  0.47773000  0.50000000
   0.97773000  0.74369000  0.50000000
   0.25631000  0.75631000  0.23404000

 position of ions in cartesian coordinates  (Angst):
   3.44788073  0.00000000 -1.87976754
   2.23229533  3.22648937  0.16747493
  -1.21558541  3.22648937 -1.87976754
   0.00000000  0.00000000  3.92701000
   0.09053059  5.11430830 -3.41101587
   2.39532378  5.49916396 -1.71229261
   4.37406006  1.33867044  3.74596572
  -0.55567426  4.18030416  3.25757556
   3.74530396  4.56515981 -1.71229261
   5.02026491  2.27267458 -2.92262570
   0.71928669  1.88781893  2.04724246
   2.06926687  0.95381479  2.04724246
  -0.46956478  1.65396298  2.87967872
   3.54730717  0.14370784  3.96864793
   0.91728348  6.30927091 -3.63369808
   4.53585683  1.57252639  2.30377542
   3.94560577  3.37019721 -0.87985635
   0.51898488  3.08278154  1.21480621
   4.93415543  4.79901576 -2.54472887
  -0.07126618  4.88045235 -1.96882556

 k-point   1 :   0.0000 0.0000 0.0000  plane waves:   11673
 k-point   2 :   0.1667 0.0000 0.0000  plane waves:   11671
 k-point   3 :   0.3333 0.0000 0.0000  plane waves:   11648
 k-point   4 :   0.5000 0.0000 0.0000  plane waves:   11668
 k-point   5 :   0.1667 0.1667 0.0000  plane waves:   11656
 k-point   6 :   0.3333 0.1667 0.0000  plane waves:   11683
 k-point   7 :   0.5000 0.1667 0.0000  plane waves:   11664
 k-point   8 :  -0.3333 0.1667 0.0000  plane waves:   11653
 k-point   9 :  -0.1667 0.1667 0.0000  plane waves:   11675
 k-point  10 :   0.3333 0.3333 0.0000  plane waves:   11655
 k-point  11 :   0.5000 0.3333 0.0000  plane waves:   11681
 k-point  12 :  -0.3333 0.3333 0.0000  plane waves:   11676
 k-point  13 :   0.5000 0.5000 0.0000  plane waves:   11694
 k-point  14 :   0.1667 0.1667 0.1667  plane waves:   11670
 k-point  15 :   0.3333 0.1667 0.1667  plane waves:   11650
 k-point  16 :  -0.1667 0.1667 0.1667  plane waves:   11664
 k-point  17 :   0.3333 0.3333 0.1667  plane waves:   11694
 k-point  18 :  -0.3333 0.3333 0.1667  plane waves:   11670
 k-point  19 :  -0.1667 0.3333 0.1667  plane waves:   11648
 k-point  20 :   0.5000 0.5000 0.1667  plane waves:   11684
 k-point  21 :  -0.3333 0.5000 0.1667  plane waves:   11678
 k-point  22 :  -0.1667 0.5000 0.1667  plane waves:   11648
 k-point  23 :  -0.3333-0.3333 0.1667  plane waves:   11651
 k-point  24 :  -0.1667-0.3333 0.1667  plane waves:   11664
 k-point  25 :  -0.1667-0.1667 0.1667  plane waves:   11662
 k-point  26 :  -0.3333 0.3333 0.3333  plane waves:   11636
 k-point  27 :   0.5000 0.5000 0.3333  plane waves:   11640
 k-point  28 :  -0.3333 0.5000 0.3333  plane waves:   11637
 k-point  29 :  -0.3333-0.3333 0.3333  plane waves:   11646
 k-point  30 :   0.5000 0.5000 0.5000  plane waves:   11646

 maximum and minimum number of plane-waves per node :      5913     5738

 maximum number of plane-waves:     11694
 maximum index in each direction:
   IXMAX=   16   IYMAX=   16   IZMAX=   15
   IXMIN=  -16   IYMIN=  -16   IZMIN=  -16

 parallel 3D FFT for wavefunctions:
    minimum data exchange during FFTs selected (reduces bandwidth)
 parallel 3D FFT for charge:
    minimum data exchange during FFTs selected (reduces bandwidth)

 Broyden mixing: mesh for mixing (old mesh)
   NGX = 31   NGY = 31   NGZ = 31
  (NGX  =128   NGY  =128   NGZ  =128)
  gives a total of  29791 points

 initial charge density was supplied:
 charge density of overlapping atoms calculated
 number of electron     156.0000000 magnetization
 keeping initial charge density in first step

 Maximum index for augmentation-charges        22303 (set IRDMAX)

 First call to EWALD:  gamma=   0.252
 Maximum number of real-space cells 3x 3x 3
 Maximum number of reciprocal cells 3x 3x 3

--------------------------------------- Iteration      1(   1)  ---------------------------------------

 eigenvalue-minimisations  :  6444
 total energy-change (2. order) : 0.1802827E+04  (-0.1046704E+05)
 number of electron     156.0000000 magnetization
 augmentation part      156.0000000 magnetization

 Free energy of the ion-electron system (eV)
  alpha Z        PSCENC =       541.04744804
  Ewald energy   TEWEN  =     -7281.76773345
  -Hartree energ DENC   =     -7524.01684223
  -exchange      EXHF   =         0.00000000
  -V(xc)+E(xc)   XCENC  =       629.96830976
  PAW double counting   =     12722.36176217   -12610.27127118
  entropy T*S    EENTRO =        -0.00107407
  eigenvalues    EBANDS =      -681.96448374
  atomic energy  EATOM  =     16007.47104556
  free energy    TOTEN  =      1802.82716086 eV

  energy without entropy =     1802.82823493  energy(sigma->0) =     1802.82769789

[...]

 eigenvalue-minimisations  :  6672
 total energy-change (2. order) :-0.1916348E+04  (-0.1872524E+04)
 number of electron     156.0000000 magnetization
 augmentation part      156.0000000 magnetization

[...]

 eigenvalue-minimisations  :     0
 total energy-change (2. order) :-0.3346941E-08  (-0.9453360E-09)
 number of electron     156.0000000 magnetization
 augmentation part       19.6624768 magnetization

[...]

--------------------------------------- Iteration      1(  33)  ---------------------------------------

 eigenvalue-minimisations  :     0
 total energy-change (2. order) : 0.5529728E-09  (-0.8607009E-09)
 number of electron     156.0000000 magnetization
 augmentation part       19.6624768 magnetization

 Free energy of the ion-electron system (eV)
  alpha Z        PSCENC =       541.04744804
  Ewald energy   TEWEN  =     -7281.76773345
  -Hartree energ DENC   =     -7919.75356339
  -exchange      EXHF   =         0.00000000
  -V(xc)+E(xc)   XCENC  =       667.72771895
  PAW double counting   =     67249.55748626   -67117.16618120
  entropy T*S    EENTRO =        -0.00133632
  eigenvalues    EBANDS =     -2264.65354613
  atomic energy  EATOM  =     16007.47104556
  free energy    TOTEN  =      -117.53866168 eV

  energy without entropy =     -117.53732537  energy(sigma->0) =     -117.53799352

  average scaling for gradient   1.1345

 average (electrostatic) potential at core
  the test charge radii are     0.7672  1.0818  0.9892
  (the norm of the test charge is              1.0000)
       1 -28.0754       2 -28.0769       3 -28.0762       4 -28.0769       5 -80.0433
       6 -80.3953       7 -80.0433       8 -80.3911       9 -80.0472      10 -80.3911
      11 -80.0472      12 -80.3953      13 -87.7972      14 -87.7951      15 -87.7951
      16 -87.8006      17 -87.7972      18 -87.7972      19 -87.7972      20 -87.8006

 E-fermi :   6.7591     XC(G=0): -10.5921     alpha+bet :-13.9125

 Fermi energy:         6.7591006356

 k-point     1 :       0.0000    0.0000    0.0000
  band No.  band energies     occupation
      1     -60.2009      2.00000
      2     -60.1812      2.00000
      3     -60.1741      2.00000
      4     -60.1567      2.00000
      5     -55.2336      2.00000
      6     -55.1813      2.00000
      7     -55.1792      2.00000
      8     -55.1338      2.00000
      9     -37.6934      2.00000
     10     -37.5135      2.00000
     11     -37.5086      2.00000
     12     -37.3699      2.00000
     13     -33.3475      2.00000
     14     -33.3272      2.00000
     15     -33.3238      2.00000
     16     -33.3049      2.00000
     17     -31.3126      2.00000
     18     -31.1614      2.00000
     19     -31.1568      2.00000
     20     -30.9896      2.00000
     21     -29.5355      2.00000
     22     -29.4906      2.00000
     23     -29.4876      2.00000
     24     -29.4610      2.00000
     25     -28.5316      2.00000
     26     -28.3069      2.00000
     27     -28.3044      2.00000
     28     -28.0680      2.00000
     29     -25.6474      2.00000
     30     -25.2425      2.00000
     31     -25.2406      2.00000
     32     -25.0111      2.00000
     33      -4.2870      2.00000
     34      -3.6448      2.00000
     35      -3.1372      2.00000
     36      -2.6227      2.00000
     37      -2.2338      2.00000
     38      -2.2319      2.00000
     39      -2.2171      2.00000
     40      -2.2161      2.00000
     41      -1.6340      2.00000
     42      -1.6329      2.00000
     43      -1.6104      2.00000
     44      -1.4850      2.00000
     45      -1.4778      2.00000
     46      -1.3605      2.00000
     47      -1.3570      2.00000
     48      -0.7819      2.00000
     49      -0.0093      2.00000
     50       0.2965      2.00000
     51       0.6697      2.00000
     52       0.6707      2.00000
     53       0.8852      2.00000
     54       0.8868      2.00000
     55       1.3725      2.00000
     56       1.4647      2.00000
     57       1.7358      2.00000
     58       2.2219      2.00000
     59       2.6128      2.00000
     60       2.6134      2.00000
[...]
     82       7.3505      0.00000
     83       7.3513      0.00000
     84       7.4440      0.00000
     85       7.8366      0.00000
     86       8.2823      0.00000
     87       8.2824      0.00000
     88       8.6482      0.00000
     89       8.7807      0.00000
     90       8.7821      0.00000
     91       9.8933      0.00000
     92      10.1594      0.00000
     93      10.7194      0.00000
     94      10.8057      0.00000
     95      10.8779      0.00000
     96      11.0178      0.00000

[...]

 k-point    30 :       0.5000    0.5000    0.5000
  band No.  band energies     occupation
      1     -60.2009      2.00000
      2     -60.1812      2.00000
      3     -60.1741      2.00000
      4     -60.1567      2.00000
      5     -55.2336      2.00000
      6     -55.1813      2.00000
      7     -55.1792      2.00000
      8     -55.1338      2.00000
      9     -37.6934      2.00000
     10     -37.5135      2.00000
     11     -37.5086      2.00000
     12     -37.3699      2.00000
     13     -33.3479      2.00000
     14     -33.3269      2.00000
     15     -33.3235      2.00000
     16     -33.3051      2.00000
     17     -31.3126      2.00000
     18     -31.1614      2.00000
     19     -31.1568      2.00000
     20     -30.9896      2.00000
     21     -29.5350      2.00000
     22     -29.4909      2.00000
     23     -29.4878      2.00000
     24     -29.4609      2.00000
     25     -28.5316      2.00000
     26     -28.3069      2.00000
     27     -28.3044      2.00000
     28     -28.0680      2.00000
     29     -25.6476      2.00000
     30     -25.2424      2.00000
     31     -25.2405      2.00000
     32     -25.0111      2.00000
     33      -3.6124      2.00000
     34      -3.5410      2.00000
     35      -3.5393      2.00000
     36      -3.4087      2.00000
     37      -2.6763      2.00000
     38      -2.3519      2.00000
     39      -2.2252      2.00000
     40      -1.9234      2.00000
     41      -1.7447      2.00000
     42      -1.7438      2.00000
     43      -1.5244      2.00000
     44      -1.4962      2.00000
     45      -1.3859      2.00000
     46      -1.3824      2.00000
     47      -0.4193      2.00000
     48      -0.0507      2.00000
     49      -0.0507      2.00000
     50       0.3098      2.00000
     51       0.4021      2.00000
     52       0.4029      2.00000
     53       0.9837      2.00000
     54       0.9845      2.00000
     55       0.9874      2.00000
     56       1.3823      2.00000
     57       1.5437      2.00000
     58       1.8016      2.00000
     59       2.6313      2.00000
     60       2.9375      2.00000
[...]
     82       7.7026      0.00000
     83       7.7605      0.00000
     84       7.7610      0.00000
     85       8.1182      0.00000
     86       8.6499      0.00000
     87       8.6770      0.00000
     88       8.6772      0.00000
     89       8.9435      0.00000
     90       9.2597      0.00000
     91       9.2651      0.00000
     92       9.5215      0.00000
     93      10.0710      0.00000
     94      10.2556      0.00000
     95      10.3394      0.00000
     96      10.6518      0.00000

 soft charge-density along one line, spin component           1
         0         1         2         3         4         5         6         7         8         9
 total charge-density along one line

------------------------ aborting loop because EDIFF is reached ----------------------------------------

  FREE ENERGIE OF THE ION-ELECTRON SYSTEM (eV)
  free  energy   TOTEN  =      -117.53866168 eV

  energy  without entropy=     -117.53732537  energy(sigma->0) =     -117.53799352

 writing wavefunctions