 vasp.6.2.0 18Jan21 (build Jan 05 2022 15:41:44) complex

 executed on             LinuxIFC date 2025.05.07  21:18:15

 INCAR:
   SYSTEM = routine with relax: pwdword
   ICHARG = 2
   NPAR = 6
   KPAR = 2
   NCORE = 2
   ADDGRID = T
   PREC = Acc
   ENCUT = 600
   METAGGA = R2SCAN
   LASPH = .TRUE.
   LMIXTAU = .FALSE.
   ALGO = A
   EDIFF = 1E-9
   NELM = 100
   NELMIN = 6
   IALGO = 38
   LREAL = F
   NSW = 0
   ISIF = -1
   ISMEAR = 0
   SIGMA = 0.02

 POTCAR:    PAW_PBE B 06Sep2000
 POTCAR:    PAW_PBE Mo_sv 02Feb2006
|           W    W    AA    RRRRR   N    N  II  N    N   GGGG   !!!           |
|           W    W   A  A   R    R  NN   N  II  NN   N  G    G  !!!           |
|           W    W  A    A  R    R  N N  N  II  N N  N  G       !!!           |
|           W WW W  AAAAAA  RRRRR   N  N N  II  N  N N  G  GGG   !            |
|           WW  WW  A    A  R   R   N   NN  II  N   NN  G    G                |
|           W    W  A    A  R    R  N    N  II  N    N   GGGG   !!!           |
|     For optimal performance we recommend to set                             |
|       NCORE = 2 up to number-of-cores-per-socket                            |
|     This setting can greatly improve the performance of VASP for DFT.       |
|     The default, NCORE=1 might be grossly inefficient on modern             |
|     multi-core architectures or massively parallel machines. Do your        |
|     Unfortunately you need to use the default for GW and RPA                |
|     calculations (for HF NCORE is supported but not extensively tested      |
|     yet).                                                                   |

 POTCAR:    PAW_PBE B 06Sep2000
   VRHFIN =B: s2p1

   TITEL  = PAW_PBE B 06Sep2000
   POMASS =   10.811; ZVAL   =    3.000    mass and valenz
   ENMAX  =  318.614; ENMIN  =  238.960 eV

 POTCAR:    PAW_PBE Mo_sv 02Feb2006
   VRHFIN =Mo: 4p5s4d

   TITEL  = PAW_PBE Mo_sv 02Feb2006
   POMASS =   95.940; ZVAL   =   14.000    mass and valenz
   ENMAX  =  242.676; ENMIN  =  182.007 eV

  PAW_PBE B 06Sep2000                   :
  PAW_PBE Mo_sv 02Feb2006               :

 POSCAR: EA245
  positions in direct lattice

 METAGGA = R2SCA    LMAXTAU =  6    LMIXTAU =  F

 ion  position               nearest neighbor table
   1  0.113  0.613  0.000-   2 1.92   9 2.36  10 2.36   9 2.36  10 2.36   8 2.41   8 2.41   5 2.42
                             6 2.42
   2  0.887  0.387  0.000-   1 1.92   9 2.36  10 2.36   9 2.36  10 2.36   7 2.41   7 2.41   5 2.42
                             6 2.42
   3  0.613  0.887  0.000-   4 1.92   7 2.36   8 2.36   7 2.36   8 2.36  10 2.41  10 2.41   5 2.42
                             6 2.42
   4  0.387  0.113  0.000-   3 1.92   7 2.36   8 2.36   7 2.36   8 2.36   9 2.41   9 2.41   5 2.42
                             6 2.42
   5  0.500  0.500  0.000-   1 2.42   2 2.42   3 2.42   4 2.42   7 2.73   8 2.73   9 2.73  10 2.73
                             7 2.73   8 2.73   9 2.73  10 2.73
   6  0.000  0.000  0.000-   1 2.42   2 2.42   3 2.42   4 2.42   7 2.73   8 2.73   9 2.73  10 2.73
                             7 2.73   8 2.73   9 2.73  10 2.73
   7  0.673  0.173  0.500-   3 2.36   4 2.36   3 2.36   4 2.36   2 2.41   2 2.41   6 2.73   5 2.73
                             5 2.73   6 2.73   8 2.93  10 3.15   9 3.15  10 3.15   9 3.15
   8  0.327  0.827  0.500-   3 2.36   4 2.36   3 2.36   4 2.36   1 2.41   1 2.41   6 2.73   5 2.73
                             5 2.73   6 2.73   7 2.93  10 3.15   9 3.15   9 3.15  10 3.15
   9  0.173  0.327  0.500-   1 2.36   2 2.36   1 2.36   2 2.36   4 2.41   4 2.41   6 2.73   5 2.73
                             5 2.73   6 2.73  10 2.93   7 3.15   8 3.15   8 3.15   7 3.15
  10  0.827  0.673  0.500-   1 2.36   2 2.36   1 2.36   2 2.36   3 2.41   3 2.41   6 2.73   5 2.73
                             5 2.73   6 2.73   9 2.93   7 3.15   8 3.15   7 3.15   8 3.15

  LATTYP: Found a simple tetragonal cell.
 ALAT       =     6.0098019300
 C/A-ratio  =     0.5246751435

  Lattice vectors:

 A1 = (   6.0098019300,   0.0000000000,   0.0000000000)
 A2 = (   0.0000000000,   6.0098019300,   0.0000000000)
 A3 = (   0.0000000000,   0.0000000000,   3.1531936900)

Analysis of symmetry for initial positions (statically):
 Subroutine PRICEL returns:
 Original cell was already a primitive cell.

 Routine SETGRP: Setting up the symmetry group for a
 simple tetragonal supercell.

 Subroutine GETGRP returns: Found 16 space group operations
 (whereof  8 operations were pure point group operations)
 out of a pool of 16 trial point group operations.

The static configuration has the point symmetry C_4h.
 The point group associated with its full space group is D_4h.

Analysis of symmetry for dynamics (positions and initial velocities):
 Subroutine PRICEL returns:
 Original cell was already a primitive cell.

 Routine SETGRP: Setting up the symmetry group for a
 simple tetragonal supercell.

 Subroutine GETGRP returns: Found 16 space group operations
 (whereof  8 operations were pure point group operations)
 out of a pool of 16 trial point group operations.

The dynamic configuration has the point symmetry C_4h.
 The point group associated with its full space group is D_4h.

 Subroutine INISYM returns: Found 16 space group operations
 (whereof  8 operations are pure point group operations),
 and found     1 'primitive' translations

                                     Primitive cell

  volume of cell :     113.8862

  direct lattice vectors                    reciprocal lattice vectors
     6.009801930  0.000000000  0.000000000     0.166394835  0.000000000  0.000000000
     0.000000000  6.009801930  0.000000000     0.000000000  0.166394835  0.000000000
     0.000000000  0.000000000  3.153193690     0.000000000  0.000000000  0.317138780

  length of vectors
     6.009801930  6.009801930  3.153193690     0.166394835  0.166394835  0.317138780

  position of ions in fractional coordinates (direct lattice)
     0.112781040  0.612781040  0.000000000
     0.887218960  0.387218960  0.000000000
     0.612781040  0.887218960  0.000000000
     0.387218960  0.112781040  0.000000000
     0.500000000  0.500000000  0.000000000
     0.000000000  0.000000000  0.000000000
     0.672563720  0.172563720  0.500000000
     0.327436280  0.827436280  0.500000000
     0.172563720  0.327436280  0.500000000
     0.827436280  0.672563720  0.500000000

  ion indices of the primitive-cell ions
   primitive index   ion index
                 1           1
                 2           2
                 3           3
                 4           4
                 5           5
                 6           6
                 7           7
                 8           8
                 9           9
                10          10

 KPOINTS: EA

Automatic generation of k-mesh.
 Grid dimensions read from file:
 generate k-points for:    6    6   11

 Generating k-lattice:

  Cartesian coordinates                     Fractional coordinates (reciprocal lattice)
     0.027732472  0.000000000  0.000000000     0.166666667  0.000000000  0.000000000
     0.000000000  0.027732472  0.000000000     0.000000000  0.166666667  0.000000000
     0.000000000  0.000000000  0.028830798     0.000000000  0.000000000  0.090909091

  Length of vectors
     0.027732472  0.027732472  0.028830798

  Shift w.r.t. Gamma in fractional coordinates (k-lattice)
     0.000000000  0.000000000  0.000000000

 Subroutine IBZKPT returns following result:

 Found     60 irreducible k-points:

 Following reciprocal coordinates:
            Coordinates               Weight
  0.000000  0.000000  0.000000      1.000000
  0.166667  0.000000  0.000000      4.000000
  0.333333  0.000000  0.000000      4.000000
  0.500000  0.000000  0.000000      2.000000
  0.166667  0.166667  0.000000      4.000000
  0.333333  0.166667  0.000000      8.000000
  0.500000  0.166667  0.000000      4.000000
  0.333333  0.333333  0.000000      4.000000
  0.500000  0.333333  0.000000      4.000000
  0.500000  0.500000  0.000000      1.000000
  0.000000  0.000000  0.090909      2.000000
  0.166667  0.000000  0.090909      8.000000
  0.333333  0.000000  0.090909      8.000000
  0.500000  0.000000  0.090909      4.000000
  0.166667  0.166667  0.090909      8.000000
  0.333333  0.166667  0.090909     16.000000
  0.500000  0.166667  0.090909      8.000000
  0.333333  0.333333  0.090909      8.000000
  0.500000  0.333333  0.090909      8.000000
  0.500000  0.500000  0.090909      2.000000
  0.000000  0.000000  0.181818      2.000000
  0.166667  0.000000  0.181818      8.000000
  0.333333  0.000000  0.181818      8.000000
  0.500000  0.000000  0.181818      4.000000
  0.166667  0.166667  0.181818      8.000000
  0.333333  0.166667  0.181818     16.000000
  0.500000  0.166667  0.181818      8.000000
  0.333333  0.333333  0.181818      8.000000
  0.500000  0.333333  0.181818      8.000000
  0.500000  0.500000  0.181818      2.000000
  0.000000  0.000000  0.272727      2.000000
  0.166667  0.000000  0.272727      8.000000
  0.333333  0.000000  0.272727      8.000000
  0.500000  0.000000  0.272727      4.000000
  0.166667  0.166667  0.272727      8.000000
  0.333333  0.166667  0.272727     16.000000
  0.500000  0.166667  0.272727      8.000000
  0.333333  0.333333  0.272727      8.000000
  0.500000  0.333333  0.272727      8.000000
  0.500000  0.500000  0.272727      2.000000
  0.000000  0.000000  0.363636      2.000000
  0.166667  0.000000  0.363636      8.000000
  0.333333  0.000000  0.363636      8.000000
  0.500000  0.000000  0.363636      4.000000
  0.166667  0.166667  0.363636      8.000000
  0.333333  0.166667  0.363636     16.000000
  0.500000  0.166667  0.363636      8.000000
  0.333333  0.333333  0.363636      8.000000
  0.500000  0.333333  0.363636      8.000000
  0.500000  0.500000  0.363636      2.000000
  0.000000  0.000000  0.454545      2.000000
  0.166667  0.000000  0.454545      8.000000
  0.333333  0.000000  0.454545      8.000000
  0.500000  0.000000  0.454545      4.000000
  0.166667  0.166667  0.454545      8.000000
  0.333333  0.166667  0.454545     16.000000
  0.500000  0.166667  0.454545      8.000000
  0.333333  0.333333  0.454545      8.000000
  0.500000  0.333333  0.454545      8.000000
  0.500000  0.500000  0.454545      2.000000

 Following cartesian coordinates:
            Coordinates               Weight
  0.000000  0.000000  0.000000      1.000000
  0.027732  0.000000  0.000000      4.000000
  0.055465  0.000000  0.000000      4.000000
  0.083197  0.000000  0.000000      2.000000
  0.027732  0.027732  0.000000      4.000000
  0.055465  0.027732  0.000000      8.000000
  0.083197  0.027732  0.000000      4.000000
  0.055465  0.055465  0.000000      4.000000
  0.083197  0.055465  0.000000      4.000000
  0.083197  0.083197  0.000000      1.000000
  0.000000  0.000000  0.028831      2.000000
  0.027732  0.000000  0.028831      8.000000
  0.055465  0.000000  0.028831      8.000000
  0.083197  0.000000  0.028831      4.000000
  0.027732  0.027732  0.028831      8.000000
  0.055465  0.027732  0.028831     16.000000
  0.083197  0.027732  0.028831      8.000000
  0.055465  0.055465  0.028831      8.000000
[...]
   0.08319742  0.05546494  0.11532319       0.020
   0.08319742  0.08319742  0.11532319       0.005
   0.00000000  0.00000000  0.14415399       0.005
   0.02773247  0.00000000  0.14415399       0.020
   0.05546494  0.00000000  0.14415399       0.020
   0.08319742  0.00000000  0.14415399       0.010
   0.02773247  0.02773247  0.14415399       0.020
   0.05546494  0.02773247  0.14415399       0.040
   0.08319742  0.02773247  0.14415399       0.020
   0.05546494  0.05546494  0.14415399       0.020
   0.08319742  0.05546494  0.14415399       0.020
   0.08319742  0.08319742  0.14415399       0.005

 k-points in reciprocal lattice and weights: EA
   0.00000000  0.00000000  0.00000000       0.003
   0.16666667  0.00000000  0.00000000       0.010
   0.33333333  0.00000000  0.00000000       0.010
   0.50000000  0.00000000  0.00000000       0.005
   0.16666667  0.16666667  0.00000000       0.010
   0.33333333  0.16666667  0.00000000       0.020
   0.50000000  0.16666667  0.00000000       0.010
   0.33333333  0.33333333  0.00000000       0.010
   0.50000000  0.33333333  0.00000000       0.010
   0.50000000  0.50000000  0.00000000       0.003
   0.00000000  0.00000000  0.09090909       0.005
   0.16666667  0.00000000  0.09090909       0.020
   0.33333333  0.00000000  0.09090909       0.020
   0.50000000  0.00000000  0.09090909       0.010
   0.16666667  0.16666667  0.09090909       0.020
   0.33333333  0.16666667  0.09090909       0.040
   0.50000000  0.16666667  0.09090909       0.020
   0.33333333  0.33333333  0.09090909       0.020
   0.50000000  0.33333333  0.09090909       0.020
   0.50000000  0.50000000  0.09090909       0.005
   0.00000000  0.00000000  0.18181818       0.005
   0.16666667  0.00000000  0.18181818       0.020
   0.33333333  0.00000000  0.18181818       0.020
   0.50000000  0.00000000  0.18181818       0.010
   0.16666667  0.16666667  0.18181818       0.020
   0.33333333  0.16666667  0.18181818       0.040
   0.50000000  0.16666667  0.18181818       0.020
   0.33333333  0.33333333  0.18181818       0.020
   0.50000000  0.33333333  0.18181818       0.020
   0.50000000  0.50000000  0.18181818       0.005
   0.00000000  0.00000000  0.27272727       0.005
   0.16666667  0.00000000  0.27272727       0.020
   0.33333333  0.00000000  0.27272727       0.020
   0.50000000  0.00000000  0.27272727       0.010
   0.16666667  0.16666667  0.27272727       0.020
   0.33333333  0.16666667  0.27272727       0.040
   0.50000000  0.16666667  0.27272727       0.020
   0.33333333  0.33333333  0.27272727       0.020
   0.50000000  0.33333333  0.27272727       0.020
   0.50000000  0.50000000  0.27272727       0.005
   0.00000000  0.00000000  0.36363636       0.005
   0.16666667  0.00000000  0.36363636       0.020
   0.33333333  0.00000000  0.36363636       0.020
   0.50000000  0.00000000  0.36363636       0.010
   0.16666667  0.16666667  0.36363636       0.020
   0.33333333  0.16666667  0.36363636       0.040
   0.50000000  0.16666667  0.36363636       0.020
   0.33333333  0.33333333  0.36363636       0.020
   0.50000000  0.33333333  0.36363636       0.020
   0.50000000  0.50000000  0.36363636       0.005
   0.00000000  0.00000000  0.45454545       0.005
   0.16666667  0.00000000  0.45454545       0.020
   0.33333333  0.00000000  0.45454545       0.020
   0.50000000  0.00000000  0.45454545       0.010
   0.16666667  0.16666667  0.45454545       0.020
   0.33333333  0.16666667  0.45454545       0.040
   0.50000000  0.16666667  0.45454545       0.020
   0.33333333  0.33333333  0.45454545       0.020
   0.50000000  0.33333333  0.45454545       0.020
   0.50000000  0.50000000  0.45454545       0.005

 position of ions in fractional coordinates (direct lattice)
   0.11278104  0.61278104  0.00000000
   0.88721896  0.38721896  0.00000000
   0.61278104  0.88721896  0.00000000
   0.38721896  0.11278104  0.00000000
   0.50000000  0.50000000  0.00000000
   0.00000000  0.00000000  0.00000000
   0.67256372  0.17256372  0.50000000
   0.32743628  0.82743628  0.50000000
   0.17256372  0.32743628  0.50000000
   0.82743628  0.67256372  0.50000000

 position of ions in cartesian coordinates  (Angst):
   0.67779171  3.68269268  0.00000000
   5.33201022  2.32710925  0.00000000
   3.68269268  5.33201022  0.00000000
   2.32710925  0.67779171  0.00000000
   3.00490097  3.00490097  0.00000000
   0.00000000  0.00000000  0.00000000
   4.04197474  1.03707378  1.57659685
   1.96782719  4.97272815  1.57659685
   1.03707378  1.96782719  1.57659685
   4.97272815  4.04197474  1.57659685

 k-point   1 :   0.0000 0.0000 0.0000  plane waves:    3821
 k-point   2 :   0.1667 0.0000 0.0000  plane waves:    3808
 k-point   3 :   0.3333 0.0000 0.0000  plane waves:    3816
 k-point   4 :   0.5000 0.0000 0.0000  plane waves:    3812
 k-point   5 :   0.1667 0.1667 0.0000  plane waves:    3809
 k-point   6 :   0.3333 0.1667 0.0000  plane waves:    3811
 k-point   7 :   0.5000 0.1667 0.0000  plane waves:    3812
 k-point   8 :   0.3333 0.3333 0.0000  plane waves:    3793
 k-point   9 :   0.5000 0.3333 0.0000  plane waves:    3790
 k-point  10 :   0.5000 0.5000 0.0000  plane waves:    3776
 k-point  11 :   0.0000 0.0000 0.0909  plane waves:    3797
 k-point  12 :   0.1667 0.0000 0.0909  plane waves:    3807
 k-point  13 :   0.3333 0.0000 0.0909  plane waves:    3805
 k-point  14 :   0.5000 0.0000 0.0909  plane waves:    3818
 k-point  15 :   0.1667 0.1667 0.0909  plane waves:    3802
 k-point  16 :   0.3333 0.1667 0.0909  plane waves:    3807
 k-point  17 :   0.5000 0.1667 0.0909  plane waves:    3800
 k-point  18 :   0.3333 0.3333 0.0909  plane waves:    3803
 k-point  19 :   0.5000 0.3333 0.0909  plane waves:    3800
 k-point  20 :   0.5000 0.5000 0.0909  plane waves:    3780
 k-point  21 :   0.0000 0.0000 0.1818  plane waves:    3793
 k-point  22 :   0.1667 0.0000 0.1818  plane waves:    3784
 k-point  23 :   0.3333 0.0000 0.1818  plane waves:    3790
 k-point  24 :   0.5000 0.0000 0.1818  plane waves:    3796
 k-point  25 :   0.1667 0.1667 0.1818  plane waves:    3795
 k-point  26 :   0.3333 0.1667 0.1818  plane waves:    3808
 k-point  27 :   0.5000 0.1667 0.1818  plane waves:    3810
 k-point  28 :   0.3333 0.3333 0.1818  plane waves:    3807
 k-point  29 :   0.5000 0.3333 0.1818  plane waves:    3808
 k-point  30 :   0.5000 0.5000 0.1818  plane waves:    3796
 k-point  31 :   0.0000 0.0000 0.2727  plane waves:    3777
 k-point  32 :   0.1667 0.0000 0.2727  plane waves:    3782
 k-point  33 :   0.3333 0.0000 0.2727  plane waves:    3784
 k-point  34 :   0.5000 0.0000 0.2727  plane waves:    3780
 k-point  35 :   0.1667 0.1667 0.2727  plane waves:    3792
 k-point  36 :   0.3333 0.1667 0.2727  plane waves:    3800
 k-point  37 :   0.5000 0.1667 0.2727  plane waves:    3792
 k-point  38 :   0.3333 0.3333 0.2727  plane waves:    3802
 k-point  39 :   0.5000 0.3333 0.2727  plane waves:    3802
 k-point  40 :   0.5000 0.5000 0.2727  plane waves:    3832
 k-point  41 :   0.0000 0.0000 0.3636  plane waves:    3772
 k-point  42 :   0.1667 0.0000 0.3636  plane waves:    3792
 k-point  43 :   0.3333 0.0000 0.3636  plane waves:    3801
 k-point  44 :   0.5000 0.0000 0.3636  plane waves:    3804
 k-point  45 :   0.1667 0.1667 0.3636  plane waves:    3795
 k-point  46 :   0.3333 0.1667 0.3636  plane waves:    3792
 k-point  47 :   0.5000 0.1667 0.3636  plane waves:    3804
 k-point  48 :   0.3333 0.3333 0.3636  plane waves:    3797
 k-point  49 :   0.5000 0.3333 0.3636  plane waves:    3812
 k-point  50 :   0.5000 0.5000 0.3636  plane waves:    3808
 k-point  51 :   0.0000 0.0000 0.4545  plane waves:    3756
 k-point  52 :   0.1667 0.0000 0.4545  plane waves:    3793
 k-point  53 :   0.3333 0.0000 0.4545  plane waves:    3788
 k-point  54 :   0.5000 0.0000 0.4545  plane waves:    3800
 k-point  55 :   0.1667 0.1667 0.4545  plane waves:    3799
 k-point  56 :   0.3333 0.1667 0.4545  plane waves:    3796
 k-point  57 :   0.5000 0.1667 0.4545  plane waves:    3808
 k-point  58 :   0.3333 0.3333 0.4545  plane waves:    3812
 k-point  59 :   0.5000 0.3333 0.4545  plane waves:    3812
 k-point  60 :   0.5000 0.5000 0.4545  plane waves:    3792

 maximum and minimum number of plane-waves per node :      1928     1866

 maximum number of plane-waves:      3832
 maximum index in each direction:
   IXMAX=   12   IYMAX=   12   IZMAX=    6
   IXMIN=  -12   IYMIN=  -12   IZMIN=   -6

 parallel 3D FFT for wavefunctions:
    minimum data exchange during FFTs selected (reduces bandwidth)
 parallel 3D FFT for charge:
    minimum data exchange during FFTs selected (reduces bandwidth)

 Broyden mixing: mesh for mixing (old mesh)
   NGX = 25   NGY = 25   NGZ = 13
  (NGX  = 96   NGY  = 96   NGZ  = 56)
  gives a total of   8125 points

 initial charge density was supplied:
 charge density of overlapping atoms calculated
 number of electron      96.0000000 magnetization
 keeping initial charge density in first step

 Maximum index for augmentation-charges        16028 (set IRDMAX)

 First call to EWALD:  gamma=   0.366
 Maximum number of real-space cells 2x 2x 4
 Maximum number of reciprocal cells 3x 3x 2

--------------------------------------- Iteration      1(   1)  ---------------------------------------

 eigenvalue-minimisations  :  7200
 total energy-change (2. order) : 0.1049879E+04  (-0.6662047E+04)
 number of electron      96.0000000 magnetization
 augmentation part       96.0000000 magnetization

 Free energy of the ion-electron system (eV)
  alpha Z        PSCENC =       743.07984068
  Ewald energy   TEWEN  =    -10063.23912684
  -Hartree energ DENC   =     -1910.24046691
  -exchange      EXHF   =         0.00000000
  -V(xc)+E(xc)   XCENC  =       495.93923794
  PAW double counting   =      9083.94759681    -9065.80994096
  entropy T*S    EENTRO =        -0.00049240
  eigenvalues    EBANDS =       307.82914121
  atomic energy  EATOM  =     11458.37352761
  free energy    TOTEN  =      1049.87931714 eV

  energy without entropy =     1049.87980954  energy(sigma->0) =     1049.87956334

[...]

 eigenvalue-minimisations  :  7908
 total energy-change (2. order) :-0.1234222E+04  (-0.1193509E+04)
 number of electron      96.0000000 magnetization
 augmentation part       96.0000000 magnetization

[...]

 eigenvalue-minimisations  :     0
 total energy-change (2. order) : 0.7135895E-08  (-0.2735583E-08)
 number of electron      96.0000001 magnetization
 augmentation part       14.6341178 magnetization

[...]

 eigenvalue-minimisations  :     0
 total energy-change (2. order) : 0.1160515E-08  ( 0.3518646E-08)
 number of electron      96.0000001 magnetization
 augmentation part       14.6341165 magnetization

[...]

--------------------------------------- Iteration      1(  38)  ---------------------------------------

 eigenvalue-minimisations  :     0
 total energy-change (2. order) :-0.1746230E-09  (-0.6664343E-10)
 number of electron      96.0000001 magnetization
 augmentation part       14.6341162 magnetization

 Free energy of the ion-electron system (eV)
  alpha Z        PSCENC =       743.07984068
  Ewald energy   TEWEN  =    -10063.23912684
  -Hartree energ DENC   =     -1736.21908660
  -exchange      EXHF   =         0.00000000
  -V(xc)+E(xc)   XCENC  =       503.03376537
  PAW double counting   =     11324.87263584   -11330.16415078
  entropy T*S    EENTRO =        -0.00079274
  eigenvalues    EBANDS =     -1089.50642876
  atomic energy  EATOM  =     11458.37352761
  free energy    TOTEN  =      -189.76981622 eV

  energy without entropy =     -189.76902348  energy(sigma->0) =     -189.76941985

  average scaling for gradient   0.9019

 average (electrostatic) potential at core
  the test charge radii are     0.7672  1.0818
  (the norm of the test charge is              1.0000)
       1 -21.5693       2 -21.5693       3 -21.5693       4 -21.5693       5 -74.3387
       6 -74.3387       7 -74.7240       8 -74.7240       9 -74.7240      10 -74.7240

 E-fermi :  12.5881     XC(G=0): -14.7026     alpha+bet :-20.3591

 Fermi energy:        12.5880538374

 k-point     1 :       0.0000    0.0000    0.0000
  band No.  band energies     occupation
      1     -50.8838      2.00000
      2     -50.7655      2.00000
      3     -50.7614      2.00000
      4     -50.7614      2.00000
      5     -50.4277      2.00000
      6     -50.3545      2.00000
      7     -24.7161      2.00000
      8     -24.7161      2.00000
      9     -24.5001      2.00000
     10     -24.3414      2.00000
     11     -24.2595      2.00000
     12     -24.2165      2.00000
     13     -24.1390      2.00000
     14     -24.1390      2.00000
     15     -24.0787      2.00000
     16     -24.0771      2.00000
     17     -24.0771      2.00000
     18     -24.0038      2.00000
     19     -23.7734      2.00000
     20     -23.7734      2.00000
     21     -23.6590      2.00000
     22     -23.4436      2.00000
     23     -23.3819      2.00000
     24     -23.3819      2.00000
     25       0.1867      2.00000
     26       2.2088      2.00000
     27       4.5095      2.00000
     28       4.5095      2.00000
     29       5.8022      2.00000
     30       6.4103      2.00000
     31       7.4230      2.00000
     32       7.6899      2.00000
     33       7.6899      2.00000
     34       7.7820      2.00000
     35       7.9254      2.00000
     36       8.1764      2.00000
     37       8.5873      2.00000
     38       8.5873      2.00000
     39       8.7235      2.00000
     40       9.5068      2.00000
     41       9.9233      2.00000
     42       9.9233      2.00000
     43      10.4694      2.00000
     44      10.8388      2.00000
     45      11.1555      2.00000
     46      11.4832      2.00000
     47      11.5727      2.00000
     48      11.5727      2.00000
     49      12.8234      0.00000
     50      13.1587      0.00000
     51      13.5923      0.00000
     52      13.5923      0.00000
     53      13.7096      0.00000
     54      13.7096      0.00000
     55      14.1724      0.00000
     56      14.5063      0.00000
     57      14.5476      0.00000
     58      14.8703      0.00000
     59      15.0179      0.00000
     60      15.2418      0.00000

[...]

 k-point    60 :       0.5000    0.5000    0.4545
  band No.  band energies     occupation
      1     -50.7657      2.00000
      2     -50.7657      2.00000
      3     -50.7385      2.00000
      4     -50.7385      2.00000
      5     -50.4031      2.00000
      6     -50.4031      2.00000
      7     -24.7559      2.00000
      8     -24.7559      2.00000
      9     -24.5965      2.00000
     10     -24.5965      2.00000
     11     -24.3698      2.00000
     12     -24.3698      2.00000
     13     -24.3143      2.00000
     14     -24.3143      2.00000
     15     -24.1371      2.00000
     16     -24.1371      2.00000
     17     -23.9804      2.00000
     18     -23.9804      2.00000
     19     -23.8556      2.00000
     20     -23.8556      2.00000
     21     -23.5271      2.00000
     22     -23.5271      2.00000
     23     -23.4909      2.00000
     24     -23.4909      2.00000
     25       2.4130      2.00000
     26       2.4130      2.00000
     27       4.2564      2.00000
     28       4.2564      2.00000
     29       6.0285      2.00000
     30       6.0285      2.00000
     31       7.3770      2.00000
     32       7.3770      2.00000
     33       7.8665      2.00000
     34       7.8665      2.00000
     35       8.6853      2.00000
     36       8.6853      2.00000
     37       8.8452      2.00000
     38       8.8452      2.00000
     39       8.8802      2.00000
     40       8.8802      2.00000
     41       9.1424      2.00000
     42       9.1424      2.00000
     43       9.3111      2.00000
     44       9.3111      2.00000
     45      10.1279      2.00000
     46      10.1279      2.00000
     47      13.4744      0.00000
     48      13.4744      0.00000
     49      14.2712      0.00000
     50      14.2712      0.00000
     51      14.3878      0.00000
     52      14.3878      0.00000
     53      14.4012      0.00000
     54      14.4012      0.00000
     55      14.9867      0.00000
     56      14.9868      0.00000
     57      15.2268      0.00000
     58      15.2268      0.00000
     59      15.8432      0.00000
     60      15.8432      0.00000

 soft charge-density along one line, spin component           1
         0         1         2         3         4         5         6         7         8         9
 total charge-density along one line

------------------------ aborting loop because EDIFF is reached ----------------------------------------

  FREE ENERGIE OF THE ION-ELECTRON SYSTEM (eV)
  free  energy   TOTEN  =      -189.76981622 eV

  energy  without entropy=     -189.76902348  energy(sigma->0) =     -189.76941985

 writing wavefunctions