 vasp.6.2.1 16May21 (build Jan 28 2022 11:20:50) complex

 executed on             LinuxIFC date 2025.05.08  07:01:10

 INCAR:
   SYSTEM = routine with relax: pwdword
   ICHARG = 2
   NPAR = 6
   KPAR = 2
   NCORE = 2
   ADDGRID = T
   PREC = Acc
   ENCUT = 600
   METAGGA = R2SCAN
   LASPH = .TRUE.
   LMIXTAU = .FALSE.
   ALGO = A
   EDIFF = 1E-9
   NELM = 100
   NELMIN = 6
   IALGO = 38
   LREAL = F
   NSW = 0
   ISIF = -1
   ISMEAR = 0
   SIGMA = 0.02
   SYMPREC = 1E-4

 POTCAR:    PAW_PBE B 06Sep2000
 POTCAR:    PAW_PBE Mo_sv 02Feb2006
 POTCAR:    PAW_PBE Si 05Jan2001
|           W    W    AA    RRRRR   N    N  II  N    N   GGGG   !!!           |
|           W    W   A  A   R    R  NN   N  II  NN   N  G    G  !!!           |
|           W    W  A    A  R    R  N N  N  II  N N  N  G       !!!           |
|           W WW W  AAAAAA  RRRRR   N  N N  II  N  N N  G  GGG   !            |
|           WW  WW  A    A  R   R   N   NN  II  N   NN  G    G                |
|           W    W  A    A  R    R  N    N  II  N    N   GGGG   !!!           |
|     For optimal performance we recommend to set                             |
|       NCORE = 2 up to number-of-cores-per-socket                            |
|     This setting can greatly improve the performance of VASP for DFT.       |
|     The default, NCORE=1 might be grossly inefficient on modern             |
|     multi-core architectures or massively parallel machines. Do your        |
|     Unfortunately you need to use the default for GW and RPA                |
|     calculations (for HF NCORE is supported but not extensively tested      |
|     yet).                                                                   |

 POTCAR:    PAW_PBE B 06Sep2000
   VRHFIN =B: s2p1

   TITEL  = PAW_PBE B 06Sep2000
   POMASS =   10.811; ZVAL   =    3.000    mass and valenz
   ENMAX  =  318.614; ENMIN  =  238.960 eV

 POTCAR:    PAW_PBE Mo_sv 02Feb2006
   VRHFIN =Mo: 4p5s4d

   TITEL  = PAW_PBE Mo_sv 02Feb2006
   POMASS =   95.940; ZVAL   =   14.000    mass and valenz
   ENMAX  =  242.676; ENMIN  =  182.007 eV

 POTCAR:    PAW_PBE Si 05Jan2001
   VRHFIN =Si: s2p2

   TITEL  = PAW_PBE Si 05Jan2001
   POMASS =   28.085; ZVAL   =    4.000    mass and valenz
   ENMAX  =  245.345; ENMIN  =  184.009 eV

  PAW_PBE B 06Sep2000                   :
  PAW_PBE Mo_sv 02Feb2006               :
  PAW_PBE Si 05Jan2001                  :

 POSCAR: EA259
  positions in direct lattice

 METAGGA = R2SCA    LMAXTAU =  6    LMIXTAU =  F

 ion  position               nearest neighbor table
   1  0.379  0.879  0.258-   3 2.07   8 2.34   9 2.34   6 2.34  14 2.34  13 2.41   5 2.41  10 2.41
                             7 2.41
   2  0.879  0.621  0.500-   4 2.07   7 2.34  10 2.34  11 2.34  12 2.34   5 2.41  13 2.41   6 2.41
                             9 2.41
   3  0.621  0.121  0.742-   1 2.07   6 2.34  14 2.34   9 2.34   8 2.34  13 2.41   5 2.41  12 2.41
                            11 2.41
   4  0.121  0.379  0.500-   2 2.07  10 2.34  11 2.34   7 2.34  12 2.34  13 2.41   5 2.41   8 2.41
                            14 2.41
   5  0.000  0.000  0.000-   2 2.41   4 2.41   1 2.41   3 2.41   7 2.75  14 2.75   6 2.75  12 2.75
                             8 2.75  10 2.75  11 2.75   9 2.75  16 2.79  15 2.79
   6  0.804  0.976  0.500-   3 2.34   1 2.34   2 2.41  16 2.58  15 2.58  13 2.75   5 2.75  14 2.81
                             8 2.87   9 3.12  10 3.16  11 3.16  12 3.20   7 3.20   7 3.20  12 3.20
   7  0.304  0.804  0.828-   2 2.34   4 2.34   1 2.41  16 2.58  15 2.58   5 2.75  13 2.75  12 2.81
                            11 2.87  10 3.12   8 3.16   9 3.16  14 3.20   6 3.20   6 3.20  14 3.20
   8  0.196  0.024  0.500-   1 2.34   3 2.34   4 2.41  16 2.58  15 2.58   5 2.75  13 2.75   9 2.81
                             6 2.87  14 3.12  12 3.16   7 3.16  11 3.20  10 3.20  10 3.20  11 3.20
   9  0.524  0.696  0.500-   1 2.34   3 2.34   2 2.41  15 2.58  16 2.58  13 2.75   5 2.75   8 2.81
                            14 2.87   6 3.12  12 3.16   7 3.16  10 3.20  11 3.20  11 3.20  10 3.20
  10  0.024  0.524  0.828-   4 2.34   2 2.34   1 2.41  15 2.58  16 2.58   5 2.75  13 2.75  11 2.81
                            12 2.87   7 3.12   6 3.16  14 3.16   8 3.20   8 3.20   9 3.20   9 3.20
  11  0.696  0.196  0.172-   4 2.34   2 2.34   3 2.41  15 2.58  16 2.58   5 2.75  13 2.75  10 2.81
                             7 2.87  12 3.12   6 3.16  14 3.16   9 3.20   8 3.20   9 3.20   8 3.20
  12  0.976  0.476  0.172-   2 2.34   4 2.34   3 2.41  15 2.58  16 2.58   5 2.75  13 2.75   7 2.81
                            10 2.87  11 3.12   9 3.16   8 3.16   6 3.20  14 3.20   6 3.20  14 3.20
  13  0.500  0.500  0.000-   2 2.41   4 2.41   3 2.41   1 2.41   6 2.75  14 2.75  11 2.75  12 2.75
                             9 2.75   8 2.75  10 2.75   7 2.75  16 2.79  15 2.79
  14  0.476  0.304  0.500-   3 2.34   1 2.34   4 2.41  15 2.58  16 2.58   5 2.75  13 2.75   6 2.81
                             9 2.87   8 3.12  10 3.16  11 3.16   7 3.20  12 3.20  12 3.20   7 3.20
  15  0.750  0.750  0.000-   8 2.58  10 2.58  11 2.58  12 2.58   9 2.58   6 2.58  14 2.58   7 2.58
                             5 2.79  13 2.79
  16  0.250  0.250  0.000-   7 2.58   9 2.58  10 2.58  11 2.58  12 2.58   8 2.58   6 2.58  14 2.58
                            13 2.79   5 2.79

  LATTYP: Found a body centered tetragonal cell.
 ALAT       =     6.0532620000
 C/A-ratio  =     1.8435484867

  Lattice vectors:

 A1 = (  -3.0266310000,   3.0266310000,   5.5797410000)
 A2 = (   3.0266310000,  -3.0266310000,   5.5797410000)
 A3 = (   3.0266310000,   3.0266310000,  -5.5797410000)

Analysis of symmetry for initial positions (statically):
 Subroutine PRICEL returns:
 Original cell was already a primitive cell.

 Routine SETGRP: Setting up the symmetry group for a
 body centered tetragonal supercell.

 Subroutine GETGRP returns: Found 16 space group operations
 (whereof  8 operations were pure point group operations)
 out of a pool of 16 trial point group operations.

The static configuration has the point symmetry C_4h.
 The point group associated with its full space group is D_4h.

Analysis of symmetry for dynamics (positions and initial velocities):
 Subroutine PRICEL returns:
 Original cell was already a primitive cell.

 Routine SETGRP: Setting up the symmetry group for a
 body centered tetragonal supercell.

 Subroutine GETGRP returns: Found 16 space group operations
 (whereof  8 operations were pure point group operations)
 out of a pool of 16 trial point group operations.

The dynamic configuration has the point symmetry C_4h.
 The point group associated with its full space group is D_4h.

 Subroutine INISYM returns: Found 16 space group operations
 (whereof  8 operations are pure point group operations),
 and found     1 'primitive' translations

                                     Primitive cell

  volume of cell :     204.4528

  direct lattice vectors                    reciprocal lattice vectors
    -3.026631000  3.026631000  5.579741000     0.000000000  0.165200185  0.089609894
     3.026631000 -3.026631000  5.579741000     0.165200185  0.000000000  0.089609894
     3.026631000  3.026631000 -5.579741000     0.165200185  0.165200185  0.000000000

  length of vectors
     7.032389356  7.032389356  7.032389356     0.187938911  0.187938911  0.233628342

  position of ions in fractional coordinates (direct lattice)
     0.379048000  0.879048000  0.258097000
     0.879048000  0.620952000  0.500000000
     0.620952000  0.120952000  0.741903000
     0.120952000  0.379048000  0.500000000
     0.000000000  0.000000000  0.000000000
     0.803808000  0.975709000  0.500000000
     0.303808000  0.803808000  0.828099000
     0.196192000  0.024291000  0.500000000
     0.524291000  0.696192000  0.500000000
     0.024291000  0.524291000  0.828099000
     0.696192000  0.196192000  0.171901000
     0.975709000  0.475709000  0.171901000
     0.500000000  0.500000000  0.000000000
     0.475709000  0.303808000  0.500000000
     0.750000000  0.750000000  0.000000000
     0.250000000  0.250000000  0.000000000

  ion indices of the primitive-cell ions
   primitive index   ion index
                 1           1
                 2           2
                 3           3
                 4           4
                 5           5
                 6           6
                 7           7
                 8           8
                 9           9
                10          10
                11          11
                12          12
                13          13
                14          14
                15          15
                16          16

 KPOINTS: EA

Automatic generation of k-mesh.
 Grid dimensions read from file:
 generate k-points for:    7    7    8

 Generating k-lattice:

  Cartesian coordinates                     Fractional coordinates (reciprocal lattice)
     0.000000000  0.023600026  0.012801413     0.142857143  0.000000000 -0.000000000
     0.023600026  0.000000000  0.012801413     0.000000000  0.142857143 -0.000000000
     0.020650023  0.020650023  0.000000000     0.000000000  0.000000000  0.125000000

  Length of vectors
     0.026848416  0.026848416  0.029203543

  Shift w.r.t. Gamma in fractional coordinates (k-lattice)
     0.000000000  0.000000000  0.000000000

 WARNING: IBZKPT: internal override: KBLOWUP is changed to .FALSE.
      ... skipping the blow-up phase ...

 Subroutine IBZKPT returns following result:

 Found    116 irreducible k-points:

 Following reciprocal coordinates:
            Coordinates               Weight
  0.000000  0.000000  0.000000      1.000000
  0.142857  0.000000  0.000000      4.000000
  0.285714  0.000000  0.000000      4.000000
  0.428571  0.000000  0.000000      4.000000
  0.142857  0.142857  0.000000      2.000000
  0.285714  0.142857  0.000000      4.000000
  0.428571  0.142857  0.000000      4.000000
 -0.428571  0.142857  0.000000      4.000000
 -0.285714  0.142857  0.000000      4.000000
 -0.142857  0.142857  0.000000      2.000000
  0.285714  0.285714  0.000000      2.000000
  0.428571  0.285714  0.000000      4.000000
 -0.428571  0.285714  0.000000      4.000000
 -0.285714  0.285714  0.000000      2.000000
  0.428571  0.428571  0.000000      2.000000
 -0.428571  0.428571  0.000000      2.000000
  0.000000  0.000000  0.125000      2.000000
  0.142857  0.000000  0.125000      4.000000
  0.285714  0.000000  0.125000      4.000000
  0.428571  0.000000  0.125000      4.000000
 -0.428571  0.000000  0.125000      4.000000
 -0.285714  0.000000  0.125000      4.000000
 -0.142857  0.000000  0.125000      4.000000
  0.142857  0.142857  0.125000      2.000000
  0.285714  0.142857  0.125000      4.000000
  0.428571  0.142857  0.125000      4.000000
 -0.428571  0.142857  0.125000      4.000000
 -0.285714  0.142857  0.125000      4.000000
 -0.142857  0.142857  0.125000      4.000000
  0.285714  0.285714  0.125000      2.000000
  0.428571  0.285714  0.125000      4.000000
 -0.428571  0.285714  0.125000      4.000000
 -0.285714  0.285714  0.125000      4.000000
 -0.142857  0.285714  0.125000      4.000000
  0.428571  0.428571  0.125000      2.000000
[...]
  -0.28571429  0.00000000  0.25000000       0.010
  -0.14285714  0.00000000  0.25000000       0.010
   0.14285714  0.14285714  0.25000000       0.005
   0.28571429  0.14285714  0.25000000       0.010
   0.42857143  0.14285714  0.25000000       0.010
  -0.42857143  0.14285714  0.25000000       0.010
  -0.28571429  0.14285714  0.25000000       0.010
  -0.14285714  0.14285714  0.25000000       0.010
   0.28571429  0.28571429  0.25000000       0.005
   0.42857143  0.28571429  0.25000000       0.010
  -0.42857143  0.28571429  0.25000000       0.010
[...]
   0.14285714  0.00000000  0.50000000       0.010
   0.28571429  0.00000000  0.50000000       0.010
   0.42857143  0.00000000  0.50000000       0.010
   0.14285714  0.14285714  0.50000000       0.005
   0.28571429  0.14285714  0.50000000       0.010
   0.42857143  0.14285714  0.50000000       0.010
  -0.42857143  0.14285714  0.50000000       0.010
  -0.28571429  0.14285714  0.50000000       0.010
  -0.14285714  0.14285714  0.50000000       0.005
   0.28571429  0.28571429  0.50000000       0.005
   0.42857143  0.28571429  0.50000000       0.010
  -0.42857143  0.28571429  0.50000000       0.010
  -0.28571429  0.28571429  0.50000000       0.005
   0.42857143  0.42857143  0.50000000       0.005
  -0.42857143  0.42857143  0.50000000       0.005

 position of ions in fractional coordinates (direct lattice)
   0.37904800  0.87904800  0.25809700
   0.87904800  0.62095200  0.50000000
   0.62095200  0.12095200  0.74190300
   0.12095200  0.37904800  0.50000000
   0.00000000  0.00000000  0.00000000
   0.80380800  0.97570900  0.50000000
   0.30380800  0.80380800  0.82809900
   0.19619200  0.02429100  0.50000000
   0.52429100  0.69619200  0.50000000
   0.02429100  0.52429100  0.82809900
   0.69619200  0.19619200  0.17190100
   0.97570900  0.47570900  0.17190100
   0.50000000  0.50000000  0.00000000
   0.47570900  0.30380800  0.50000000
   0.75000000  0.75000000  0.00000000
   0.25000000  0.25000000  0.00000000

 position of ions in cartesian coordinates  (Angst):
   2.29447988 -0.73215112  5.57973542
   0.73215415  2.29447685  5.57974100
   0.73215112  3.75878212  0.00000558
   2.29447685  0.73215415 -0.00000000
   0.00000000  0.00000000  0.00000000
   2.03359640  0.99303460  7.13937347
   4.01966560  0.99303460  1.55963247
   0.99303460  2.03359640 -1.55963247
   2.03359640  0.99303460  4.02010853
   4.01966560  0.99303460 -1.55963247
  -0.99303460  2.03359640  4.02010853
  -0.99303460  2.03359640  7.13937347
   0.00000000  0.00000000  5.57974100
   0.99303460  2.03359640  1.55963247
   0.00000000  0.00000000  8.36961150
   0.00000000  0.00000000  2.78987050

 k-point   1 :   0.0000 0.0000 0.0000  plane waves:    6751
 k-point   2 :   0.1429 0.0000 0.0000  plane waves:    6793
 k-point   3 :   0.2857 0.0000 0.0000  plane waves:    6812
 k-point   4 :   0.4286 0.0000 0.0000  plane waves:    6815
 k-point   5 :   0.1429 0.1429 0.0000  plane waves:    6807
 k-point   6 :   0.2857 0.1429 0.0000  plane waves:    6824
 k-point   7 :   0.4286 0.1429 0.0000  plane waves:    6831
 k-point   8 :  -0.4286 0.1429 0.0000  plane waves:    6827
 k-point   9 :  -0.2857 0.1429 0.0000  plane waves:    6824
 k-point  10 :  -0.1429 0.1429 0.0000  plane waves:    6799
 k-point  11 :   0.2857 0.2857 0.0000  plane waves:    6824
 k-point  12 :   0.4286 0.2857 0.0000  plane waves:    6823
 k-point  13 :  -0.4286 0.2857 0.0000  plane waves:    6823
 k-point  14 :  -0.2857 0.2857 0.0000  plane waves:    6817
 k-point  15 :   0.4286 0.4286 0.0000  plane waves:    6827
 k-point  16 :  -0.4286 0.4286 0.0000  plane waves:    6835
 k-point  17 :   0.0000 0.0000 0.1250  plane waves:    6803
 k-point  18 :   0.1429 0.0000 0.1250  plane waves:    6819
 k-point  19 :   0.2857 0.0000 0.1250  plane waves:    6821
 k-point  20 :   0.4286 0.0000 0.1250  plane waves:    6829
 k-point  21 :  -0.4286 0.0000 0.1250  plane waves:    6820
 k-point  22 :  -0.2857 0.0000 0.1250  plane waves:    6801
 k-point  23 :  -0.1429 0.0000 0.1250  plane waves:    6784
 k-point  24 :   0.1429 0.1429 0.1250  plane waves:    6820
 k-point  25 :   0.2857 0.1429 0.1250  plane waves:    6834
 k-point  26 :   0.4286 0.1429 0.1250  plane waves:    6844
 k-point  27 :  -0.4286 0.1429 0.1250  plane waves:    6816
 k-point  28 :  -0.2857 0.1429 0.1250  plane waves:    6817
 k-point  29 :  -0.1429 0.1429 0.1250  plane waves:    6828
 k-point  30 :   0.2857 0.2857 0.1250  plane waves:    6830
 k-point  31 :   0.4286 0.2857 0.1250  plane waves:    6839
 k-point  32 :  -0.4286 0.2857 0.1250  plane waves:    6828
 k-point  33 :  -0.2857 0.2857 0.1250  plane waves:    6828
 k-point  34 :  -0.1429 0.2857 0.1250  plane waves:    6829
 k-point  35 :   0.4286 0.4286 0.1250  plane waves:    6822
 k-point  36 :  -0.4286 0.4286 0.1250  plane waves:    6832
 k-point  37 :  -0.2857 0.4286 0.1250  plane waves:    6831
 k-point  38 :  -0.1429 0.4286 0.1250  plane waves:    6834
 k-point  39 :  -0.4286-0.4286 0.1250  plane waves:    6833
 k-point  40 :  -0.2857-0.4286 0.1250  plane waves:    6822
 k-point  41 :  -0.1429-0.4286 0.1250  plane waves:    6825
 k-point  42 :  -0.2857-0.2857 0.1250  plane waves:    6821
 k-point  43 :  -0.1429-0.2857 0.1250  plane waves:    6802
 k-point  44 :  -0.1429-0.1429 0.1250  plane waves:    6754
 k-point  45 :   0.0000 0.0000 0.2500  plane waves:    6821
 k-point  46 :   0.1429 0.0000 0.2500  plane waves:    6825
 k-point  47 :   0.2857 0.0000 0.2500  plane waves:    6825
 k-point  48 :   0.4286 0.0000 0.2500  plane waves:    6823
 k-point  49 :  -0.4286 0.0000 0.2500  plane waves:    6819
 k-point  50 :  -0.2857 0.0000 0.2500  plane waves:    6813
 k-point  51 :  -0.1429 0.0000 0.2500  plane waves:    6815
 k-point  52 :   0.1429 0.1429 0.2500  plane waves:    6837
 k-point  53 :   0.2857 0.1429 0.2500  plane waves:    6830
 k-point  54 :   0.4286 0.1429 0.2500  plane waves:    6840
 k-point  55 :  -0.4286 0.1429 0.2500  plane waves:    6818
 k-point  56 :  -0.2857 0.1429 0.2500  plane waves:    6827
 k-point  57 :  -0.1429 0.1429 0.2500  plane waves:    6836
 k-point  58 :   0.2857 0.2857 0.2500  plane waves:    6832
 k-point  59 :   0.4286 0.2857 0.2500  plane waves:    6829
 k-point  60 :  -0.4286 0.2857 0.2500  plane waves:    6824
[...]
 k-point 102 :   0.1429 0.0000 0.5000  plane waves:    6826
 k-point 103 :   0.2857 0.0000 0.5000  plane waves:    6821
 k-point 104 :   0.4286 0.0000 0.5000  plane waves:    6824
 k-point 105 :   0.1429 0.1429 0.5000  plane waves:    6832
 k-point 106 :   0.2857 0.1429 0.5000  plane waves:    6825
 k-point 107 :   0.4286 0.1429 0.5000  plane waves:    6825
 k-point 108 :  -0.4286 0.1429 0.5000  plane waves:    6829
 k-point 109 :  -0.2857 0.1429 0.5000  plane waves:    6834
 k-point 110 :  -0.1429 0.1429 0.5000  plane waves:    6832
 k-point 111 :   0.2857 0.2857 0.5000  plane waves:    6829
 k-point 112 :   0.4286 0.2857 0.5000  plane waves:    6829
 k-point 113 :  -0.4286 0.2857 0.5000  plane waves:    6835
 k-point 114 :  -0.2857 0.2857 0.5000  plane waves:    6846
 k-point 115 :   0.4286 0.4286 0.5000  plane waves:    6842
 k-point 116 :  -0.4286 0.4286 0.5000  plane waves:    6814

 maximum and minimum number of plane-waves per node :      3433     3361

 maximum number of plane-waves:      6846
 maximum index in each direction:
   IXMAX=   14   IYMAX=   14   IZMAX=   14
   IXMIN=  -14   IYMIN=  -14   IZMIN=  -14

 parallel 3D FFT for wavefunctions:
    minimum data exchange during FFTs selected (reduces bandwidth)
 parallel 3D FFT for charge:
    minimum data exchange during FFTs selected (reduces bandwidth)

 Broyden mixing: mesh for mixing (old mesh)
   NGX = 29   NGY = 29   NGZ = 29
  (NGX  =112   NGY  =112   NGZ  =112)
  gives a total of  24389 points

 initial charge density was supplied:
 charge density of overlapping atoms calculated
 number of electron     160.0000000 magnetization
 charge density for first step will be calculated from the start-wavefunctions

 Maximum index for augmentation-charges        26078 (set IRDMAX)

 First call to EWALD:  gamma=   0.301
 Maximum number of real-space cells 3x 3x 4
 Maximum number of reciprocal cells 3x 3x 3

--------------------------------------- Iteration      1(   1)  ---------------------------------------

 eigenvalue-minimisations  : 22284
 total energy-change (2. order) : 0.1845362E+04  (-0.1096004E+05)
 number of electron     160.0000000 magnetization
 augmentation part      160.0000000 magnetization

 Free energy of the ion-electron system (eV)
  alpha Z        PSCENC =      1115.08645167
  Ewald energy   TEWEN  =    -16385.11924544
  -Hartree energ DENC   =     -3418.17742106
  -exchange      EXHF   =         0.00000000
  -V(xc)+E(xc)   XCENC  =       792.80501068
  PAW double counting   =     15195.10980530   -15141.88575711
  entropy T*S    EENTRO =        -0.00125984
  eigenvalues    EBANDS =       573.90751603
  atomic energy  EATOM  =     19113.63672979
  free energy    TOTEN  =      1845.36183001 eV

  energy without entropy =     1845.36308985  energy(sigma->0) =     1845.36245993

[...]

 eigenvalue-minimisations  : 23664
 total energy-change (2. order) :-0.2127342E+04  (-0.2077985E+04)
 number of electron     160.0000000 magnetization
 augmentation part      160.0000000 magnetization

[...]

 eigenvalue-minimisations  :     0
 total energy-change (2. order) : 0.1407898E-08  (-0.1722083E-07)
 number of electron     160.0000001 magnetization
 augmentation part       24.0065232 magnetization

[...]

--------------------------------------- Iteration      1(  38)  ---------------------------------------

 eigenvalue-minimisations  :     0
 total energy-change (2. order) :-0.5711627E-09  (-0.9435702E-09)
 number of electron     160.0000001 magnetization
 augmentation part       24.0065283 magnetization

 Free energy of the ion-electron system (eV)
  alpha Z        PSCENC =      1115.08645167
  Ewald energy   TEWEN  =    -16385.11924544
  -Hartree energ DENC   =     -3131.69582126
  -exchange      EXHF   =         0.00000000
  -V(xc)+E(xc)   XCENC  =       804.37716000
  PAW double counting   =     19545.14710261   -19529.16134396
  entropy T*S    EENTRO =        -0.00131778
  eigenvalues    EBANDS =     -1846.63959554
  atomic energy  EATOM  =     19113.63672979
  free energy    TOTEN  =      -314.36987992 eV

  energy without entropy =     -314.36856214  energy(sigma->0) =     -314.36922103

  average scaling for gradient   0.8471

 average (electrostatic) potential at core
  the test charge radii are     0.7672  1.0818  0.9892
  (the norm of the test charge is              1.0000)
       1 -21.8082       2 -21.8082       3 -21.8082       4 -21.8082       5 -74.9686
       6 -74.9095       7 -74.9094       8 -74.9095       9 -74.9095      10 -74.9095
      11 -74.9094      12 -74.9095      13 -74.9686      14 -74.9095      15 -79.9896
      16 -79.9896

 E-fermi :  12.2244     XC(G=0): -14.3091     alpha+bet :-19.7996

 Fermi energy:        12.2244151105

 k-point     1 :       0.0000    0.0000    0.0000
  band No.  band energies     occupation
      1     -51.1373      2.00000
      2     -51.0302      2.00000
      3     -50.9493      2.00000
      4     -50.9380      2.00000
      5     -50.9207      2.00000
      6     -50.9199      2.00000
      7     -50.9199      2.00000
      8     -50.9012      2.00000
      9     -50.8979      2.00000
     10     -50.8978      2.00000
     11     -24.9591      2.00000
     12     -24.9154      2.00000
     13     -24.9154      2.00000
     14     -24.7530      2.00000
     15     -24.7530      2.00000
     16     -24.7325      2.00000
     17     -24.7005      2.00000
     18     -24.6500      2.00000
     19     -24.6191      2.00000
     20     -24.4657      2.00000
     21     -24.4657      2.00000
     22     -24.4509      2.00000
     23     -24.4110      2.00000
     24     -24.3702      2.00000
     25     -24.3078      2.00000
     26     -24.3078      2.00000
     27     -24.2753      2.00000
     28     -24.2512      2.00000
     29     -24.2125      2.00000
     30     -24.1856      2.00000
     31     -24.0660      2.00000
     32     -24.0659      2.00000
     33     -24.0567      2.00000
     34     -24.0566      2.00000
     35     -24.0245      2.00000
     36     -24.0245      2.00000
     37     -23.9885      2.00000
     38     -23.9756      2.00000
     39     -23.9472      2.00000
     40     -23.9472      2.00000
     41       0.4365      2.00000
     42       1.9669      2.00000
     43       2.8776      2.00000
     44       3.1500      2.00000
     45       4.6648      2.00000
     46       4.6648      2.00000
     47       5.6803      2.00000
     48       6.1206      2.00000
     49       6.2960      2.00000
     50       6.2961      2.00000
     51       6.6601      2.00000
     52       6.6927      2.00000
     53       7.5681      2.00000
     54       7.6161      2.00000
     55       7.8618      2.00000
     56       7.8618      2.00000
     57       8.1053      2.00000
     58       8.2065      2.00000
     59       8.2065      2.00000
     60       8.3674      2.00000
[...]
     82      12.7672      0.00000
     83      13.0012      0.00000
     84      13.0226      0.00000
     85      13.1657      0.00000
     86      13.1657      0.00000
     87      13.1729      0.00000
     88      13.3668      0.00000
     89      13.4773      0.00000
     90      13.4773      0.00000
     91      13.7506      0.00000
     92      13.9859      0.00000
     93      14.0470      0.00000
     94      14.1669      0.00000
     95      14.1832      0.00000
     96      14.4992      0.00000

[...]

 k-point   116 :      -0.4286    0.4286    0.5000
  band No.  band energies     occupation
      1     -51.1131      2.00000
      2     -51.0336      2.00000
      3     -50.9941      2.00000
      4     -50.9438      2.00000
      5     -50.9356      2.00000
      6     -50.9304      2.00000
      7     -50.9265      2.00000
      8     -50.8847      2.00000
      9     -50.8837      2.00000
     10     -50.8666      2.00000
     11     -24.8989      2.00000
     12     -24.8739      2.00000
     13     -24.8665      2.00000
     14     -24.8600      2.00000
     15     -24.8581      2.00000
     16     -24.7349      2.00000
     17     -24.6638      2.00000
     18     -24.6367      2.00000
     19     -24.5409      2.00000
     20     -24.5179      2.00000
     21     -24.4542      2.00000
     22     -24.4300      2.00000
     23     -24.3945      2.00000
     24     -24.3534      2.00000
     25     -24.3170      2.00000
     26     -24.3024      2.00000
     27     -24.2569      2.00000
     28     -24.2362      2.00000
     29     -24.2352      2.00000
     30     -24.2120      2.00000
     31     -24.1855      2.00000
     32     -24.1207      2.00000
     33     -24.0986      2.00000
     34     -24.0010      2.00000
     35     -23.9989      2.00000
     36     -23.9946      2.00000
     37     -23.9903      2.00000
     38     -23.9453      2.00000
     39     -23.9452      2.00000
     40     -23.9351      2.00000
     41       1.4203      2.00000
     42       2.0324      2.00000
     43       2.1066      2.00000
     44       2.7851      2.00000
     45       4.5656      2.00000
     46       4.5898      2.00000
     47       5.5129      2.00000
     48       6.0811      2.00000
     49       6.3461      2.00000
     50       6.3532      2.00000
     51       6.5283      2.00000
     52       6.7208      2.00000
     53       6.7256      2.00000
     54       7.2906      2.00000
     55       7.3383      2.00000
     56       7.4629      2.00000
     57       7.8949      2.00000
     58       8.1218      2.00000
     59       8.4224      2.00000
     60       8.4487      2.00000
[...]
     82      11.9007      2.00000
     83      12.0248      2.00000
     84      12.2730      0.00059
     85      12.6132      0.00000
     86      12.7081      0.00000
     87      12.7731      0.00000
     88      12.8938      0.00000
     89      13.0854      0.00000
     90      13.7220      0.00000
     91      14.2486      0.00000
     92      14.2659      0.00000
     93      14.4186      0.00000
     94      14.6076      0.00000
     95      14.8243      0.00000
     96      14.8733      0.00000

 soft charge-density along one line, spin component           1
         0         1         2         3         4         5         6         7         8         9
 total charge-density along one line

------------------------ aborting loop because EDIFF is reached ----------------------------------------

  FREE ENERGIE OF THE ION-ELECTRON SYSTEM (eV)
  free  energy   TOTEN  =      -314.36987992 eV

  energy  without entropy=     -314.36856214  energy(sigma->0) =     -314.36922103

 writing wavefunctions