 vasp.6.2.0 18Jan21 (build Jan 05 2022 15:41:44) complex

 executed on             LinuxIFC date 2025.05.07  18:34:49

 INCAR:
   SYSTEM = routine with relax: pwdword
   ICHARG = 2
   NPAR = 6
   KPAR = 2
   NCORE = 2
   ADDGRID = T
   PREC = Acc
   ENCUT = 600
   METAGGA = R2SCAN
   LASPH = .TRUE.
   LMIXTAU = .FALSE.
   ALGO = A
   EDIFF = 1E-9
   NELM = 100
   NELMIN = 6
   IALGO = 38
   LREAL = F
   NSW = 0
   ISIF = -1
   ISMEAR = 0
   SIGMA = 0.02
   SYMPREC = 1E-4

 POTCAR:    PAW_PBE B 06Sep2000
 POTCAR:    PAW_PBE Mo_sv 02Feb2006
 POTCAR:    PAW_PBE Si 05Jan2001
|           W    W    AA    RRRRR   N    N  II  N    N   GGGG   !!!           |
|           W    W   A  A   R    R  NN   N  II  NN   N  G    G  !!!           |
|           W    W  A    A  R    R  N N  N  II  N N  N  G       !!!           |
|           W WW W  AAAAAA  RRRRR   N  N N  II  N  N N  G  GGG   !            |
|           WW  WW  A    A  R   R   N   NN  II  N   NN  G    G                |
|           W    W  A    A  R    R  N    N  II  N    N   GGGG   !!!           |
|     For optimal performance we recommend to set                             |
|       NCORE = 2 up to number-of-cores-per-socket                            |
|     This setting can greatly improve the performance of VASP for DFT.       |
|     The default, NCORE=1 might be grossly inefficient on modern             |
|     multi-core architectures or massively parallel machines. Do your        |
|     Unfortunately you need to use the default for GW and RPA                |
|     calculations (for HF NCORE is supported but not extensively tested      |
|     yet).                                                                   |

 POTCAR:    PAW_PBE B 06Sep2000
   VRHFIN =B: s2p1

   TITEL  = PAW_PBE B 06Sep2000
   POMASS =   10.811; ZVAL   =    3.000    mass and valenz
   ENMAX  =  318.614; ENMIN  =  238.960 eV

 POTCAR:    PAW_PBE Mo_sv 02Feb2006
   VRHFIN =Mo: 4p5s4d

   TITEL  = PAW_PBE Mo_sv 02Feb2006
   POMASS =   95.940; ZVAL   =   14.000    mass and valenz
   ENMAX  =  242.676; ENMIN  =  182.007 eV

 POTCAR:    PAW_PBE Si 05Jan2001
   VRHFIN =Si: s2p2

   TITEL  = PAW_PBE Si 05Jan2001
   POMASS =   28.085; ZVAL   =    4.000    mass and valenz
   ENMAX  =  245.345; ENMIN  =  184.009 eV

  PAW_PBE B 06Sep2000                   :
  PAW_PBE Mo_sv 02Feb2006               :
  PAW_PBE Si 05Jan2001                  :

 POSCAR: EA160
  positions in direct lattice

 METAGGA = R2SCA    LMAXTAU =  6    LMIXTAU =  F

 ion  position               nearest neighbor table
   1  0.110  0.610  0.981-  13 1.13  15 2.37   9 2.44  11 2.44  16 2.52
   2  0.890  0.390  0.019-  13 1.13  16 2.37  11 2.44   9 2.44  15 2.52
   3  0.610  0.629  0.500-  14 1.13  16 2.37   9 2.44  11 2.44  15 2.52
   4  0.390  0.371  0.500-  14 1.13  15 2.37  11 2.44   9 2.44  16 2.52
   5  0.629  0.129  0.019-  10 1.13  15 2.37  11 2.44   9 2.44  16 2.52
   6  0.371  0.871  0.981-  10 1.13  16 2.37  11 2.44   9 2.44  15 2.52
   7  0.129  0.110  0.500-  12 1.13  16 2.37  11 2.44   9 2.44  15 2.52
   8  0.871  0.890  0.500-  12 1.13  15 2.37   9 2.44  11 2.44  16 2.52
   9  0.250  0.250  0.000-  14 2.17  12 2.17  10 2.17  13 2.17   8 2.44   3 2.44   4 2.44   7 2.44
                             5 2.44   6 2.44   1 2.44   2 2.44  16 3.06  16 3.06  15 3.06  15 3.06
  10  0.500  0.000  0.000-   5 1.13   6 1.13  15 2.17  16 2.17   9 2.17  11 2.17  14 3.06  14 3.06
                            12 3.06  12 3.06
  11  0.750  0.750  0.000-  12 2.17  14 2.17  13 2.17  10 2.17   7 2.44   4 2.44   8 2.44   3 2.44
                             5 2.44   6 2.44   2 2.44   1 2.44  15 3.06  15 3.06  16 3.06  16 3.06
  12  0.000  0.000  0.500-   7 1.13   8 1.13   9 2.17  11 2.17  16 2.17  15 2.17  13 3.06  13 3.06
                            10 3.06  10 3.06
  13  0.000  0.500  0.000-   1 1.13   2 1.13  16 2.17  15 2.17   9 2.17  11 2.17  12 3.06  12 3.06
                            14 3.06  14 3.06
  14  0.500  0.500  0.500-   3 1.13   4 1.13  11 2.17   9 2.17  16 2.17  15 2.17  10 3.06  10 3.06
                            13 3.06  13 3.06
  15  0.750  0.250  0.500-  13 2.17  10 2.17  14 2.17  12 2.17   1 2.37   5 2.37   4 2.37   8 2.37
                             6 2.52   2 2.52   3 2.52   7 2.52  11 3.06  11 3.06   9 3.06   9 3.06
  16  0.250  0.750  0.500-  10 2.17  13 2.17  14 2.17  12 2.17   2 2.37   6 2.37   3 2.37   7 2.37
                             5 2.52   1 2.52   8 2.52   4 2.52   9 3.06   9 3.06  11 3.06  11 3.06

  LATTYP: Found a body centered tetragonal cell.
 ALAT       =     6.1295721656
 C/A-ratio  =     1.5386258908

  Lattice vectors:

 A1 = (   5.3822744225,   0.0000000000,  -3.4718309082)
 A2 = (  -1.5984135215,   5.1394505712,  -3.4718309082)
 A3 = (   0.0000000000,   0.0000000000,   6.4048800000)

Analysis of symmetry for initial positions (statically):
 Subroutine PRICEL returns:
 Original cell was already a primitive cell.

 Routine SETGRP: Setting up the symmetry group for a
 body centered tetragonal supercell.

 Subroutine GETGRP returns: Found 16 space group operations
 (whereof  8 operations were pure point group operations)
 out of a pool of 16 trial point group operations.

The static configuration has the point symmetry C_4h.
 The point group associated with its full space group is D_4h.

Analysis of symmetry for dynamics (positions and initial velocities):
 Subroutine PRICEL returns:
 Original cell was already a primitive cell.

 Routine SETGRP: Setting up the symmetry group for a
 body centered tetragonal supercell.

 Subroutine GETGRP returns: Found 16 space group operations
 (whereof  8 operations were pure point group operations)
 out of a pool of 16 trial point group operations.

The dynamic configuration has the point symmetry C_4h.
 The point group associated with its full space group is D_4h.

 Subroutine INISYM returns: Found 16 space group operations
 (whereof  8 operations are pure point group operations),
 and found     1 'primitive' translations

                                     Primitive cell

  volume of cell :     177.1714

  direct lattice vectors                    reciprocal lattice vectors
     5.382274422  0.000000000 -3.471830908     0.185795060  0.057783869  0.000000000
    -1.598413521  5.139450571 -3.471830908     0.000000000  0.194573328  0.000000000
     0.000000000  0.000000000  6.404880000     0.100712118  0.136792807  0.156130950

  length of vectors
     6.404880000  6.404880000  6.404880000     0.194573328  0.194573328  0.230720776

  position of ions in fractional coordinates (direct lattice)
     0.110310000  0.610310000  0.981190000
     0.889690000  0.389690000  0.018810000
     0.610310000  0.629120000  0.500000000
     0.389690000  0.370880000  0.500000000
     0.629120000  0.129120000  0.018810000
     0.370880000  0.870880000  0.981190000
     0.129120000  0.110310000  0.500000000
     0.870880000  0.889690000  0.500000000
     0.250000000  0.250000000  0.000000000
     0.500000000  0.000000000  0.000000000
     0.750000000  0.750000000  0.000000000
     0.000000000  0.000000000  0.500000000
     0.000000000  0.500000000  0.000000000
     0.500000000  0.500000000  0.500000000
     0.750000000  0.250000000  0.500000000
     0.250000000  0.750000000  0.500000000

  ion indices of the primitive-cell ions
   primitive index   ion index
                 1           1
                 2           2
                 3           3
                 4           4
                 5           5
                 6           6
                 7           7
                 8           8
                 9           9
                10          10
                11          11
                12          12
                13          13
                14          14
                15          15
                16          16

 KPOINTS: EA

Automatic generation of k-mesh.
 Grid dimensions read from file:
 generate k-points for:    7    7    8

 Generating k-lattice:

  Cartesian coordinates                     Fractional coordinates (reciprocal lattice)
     0.026542151  0.008254838  0.000000000     0.142857143  0.000000000  0.000000000
     0.000000000  0.027796190  0.000000000     0.000000000  0.142857143  0.000000000
     0.012589015  0.017099101  0.019516369     0.000000000  0.000000000  0.125000000

  Length of vectors
     0.027796190  0.027796190  0.028840097

  Shift w.r.t. Gamma in fractional coordinates (k-lattice)
     0.000000000  0.000000000  0.000000000

 WARNING: IBZKPT: internal override: KBLOWUP is changed to .FALSE.
      ... skipping the blow-up phase ...

 Subroutine IBZKPT returns following result:

 Found    116 irreducible k-points:

 Following reciprocal coordinates:
            Coordinates               Weight
  0.000000  0.000000  0.000000      1.000000
  0.142857  0.000000  0.000000      4.000000
  0.285714  0.000000  0.000000      4.000000
  0.428571 -0.000000  0.000000      4.000000
  0.142857  0.142857  0.000000      2.000000
  0.285714  0.142857  0.000000      4.000000
  0.428571  0.142857  0.000000      4.000000
 -0.428571  0.142857  0.000000      4.000000
 -0.285714  0.142857  0.000000      4.000000
 -0.142857  0.142857  0.000000      2.000000
  0.285714  0.285714  0.000000      2.000000
  0.428571  0.285714  0.000000      4.000000
 -0.428571  0.285714  0.000000      4.000000
 -0.285714  0.285714  0.000000      2.000000
  0.428571  0.428571  0.000000      2.000000
 -0.428571  0.428571  0.000000      2.000000
 -0.000000 -0.000000  0.125000      2.000000
  0.142857 -0.000000  0.125000      4.000000
  0.285714  0.000000  0.125000      4.000000
  0.428571 -0.000000  0.125000      4.000000
 -0.428571 -0.000000  0.125000      4.000000
 -0.285714 -0.000000  0.125000      4.000000
 -0.142857 -0.000000  0.125000      4.000000
  0.142857  0.142857  0.125000      2.000000
  0.285714  0.142857  0.125000      4.000000
  0.428571  0.142857  0.125000      4.000000
 -0.428571  0.142857  0.125000      4.000000
 -0.285714  0.142857  0.125000      4.000000
 -0.142857  0.142857  0.125000      4.000000
  0.285714  0.285714  0.125000      2.000000
  0.428571  0.285714  0.125000      4.000000
 -0.428571  0.285714  0.125000      4.000000
 -0.285714  0.285714  0.125000      4.000000
 -0.142857  0.285714  0.125000      4.000000
  0.428571  0.428571  0.125000      2.000000
 -0.428571  0.428571  0.125000      4.000000
 -0.285714  0.428571  0.125000      4.000000
 -0.142857  0.428571  0.125000      4.000000
 -0.428571 -0.428571  0.125000      2.000000
 -0.285714 -0.428571  0.125000      4.000000
 -0.142857 -0.428571  0.125000      4.000000
 -0.285714 -0.285714  0.125000      2.000000
 -0.142857 -0.285714  0.125000      4.000000
 -0.142857 -0.142857  0.125000      2.000000
 -0.000000 -0.000000  0.250000      2.000000
  0.142857 -0.000000  0.250000      4.000000
  0.285714 -0.000000  0.250000      4.000000
  0.428571 -0.000000  0.250000      4.000000
 -0.428571  0.000000  0.250000      4.000000
 -0.285714 -0.000000  0.250000      4.000000
 -0.142857 -0.000000  0.250000      4.000000
  0.142857  0.142857  0.250000      2.000000
  0.285714  0.142857  0.250000      4.000000
  0.428571  0.142857  0.250000      4.000000
[...]
  -0.42857143  0.00000000  0.25000000       0.010
  -0.28571429 -0.00000000  0.25000000       0.010
  -0.14285714 -0.00000000  0.25000000       0.010
   0.14285714  0.14285714  0.25000000       0.005
   0.28571429  0.14285714  0.25000000       0.010
   0.42857143  0.14285714  0.25000000       0.010
  -0.42857143  0.14285714  0.25000000       0.010
  -0.28571429  0.14285714  0.25000000       0.010
  -0.14285714  0.14285714  0.25000000       0.010
   0.28571429  0.28571429  0.25000000       0.005
   0.42857143  0.28571429  0.25000000       0.010
  -0.42857143  0.28571429  0.25000000       0.010
[...]
   0.14285714 -0.00000000  0.50000000       0.010
   0.28571429 -0.00000000  0.50000000       0.010
   0.42857143 -0.00000000  0.50000000       0.010
   0.14285714  0.14285714  0.50000000       0.005
   0.28571429  0.14285714  0.50000000       0.010
   0.42857143  0.14285714  0.50000000       0.010
  -0.42857143  0.14285714  0.50000000       0.010
  -0.28571429  0.14285714  0.50000000       0.010
  -0.14285714  0.14285714  0.50000000       0.005
   0.28571429  0.28571429  0.50000000       0.005
   0.42857143  0.28571429  0.50000000       0.010
  -0.42857143  0.28571429  0.50000000       0.010
  -0.28571429  0.28571429  0.50000000       0.005
   0.42857143  0.42857143  0.50000000       0.005
  -0.42857143  0.42857143  0.50000000       0.005

 position of ions in fractional coordinates (direct lattice)
   0.11031000  0.61031000  0.98119000
   0.88969000  0.38969000  0.01881000
   0.61031000  0.62912000  0.50000000
   0.38969000  0.37088000  0.50000000
   0.62912000  0.12912000  0.01881000
   0.37088000  0.87088000  0.98119000
   0.12912000  0.11031000  0.50000000
   0.87088000  0.88969000  0.50000000
   0.25000000  0.25000000  0.00000000
   0.50000000  0.00000000  0.00000000
   0.75000000  0.75000000  0.00000000
   0.00000000  0.00000000  0.50000000
   0.00000000  0.50000000  0.00000000
   0.50000000  0.50000000  0.50000000
   0.75000000  0.25000000  0.50000000
   0.25000000  0.75000000  0.50000000

 position of ions in cartesian coordinates  (Angst):
  -0.38180906  3.13665808  3.78253342
   4.16566997  2.00279249 -4.32131523
   2.27926199  3.23333114 -1.10065138
   1.50459891  1.90611943  0.56186957
   3.17970933  0.66360586 -2.51200528
   0.60415157  4.47584471  1.97322346
   0.51863828  0.56693279  2.37117953
   3.26522262  4.57251778 -2.90996134
   0.94596523  1.28486264 -1.73591545
   2.69113721  0.00000000 -1.73591545
   2.83789568  3.85458793 -5.20774636
   0.00000000  0.00000000  3.20244000
  -0.79920676  2.56972529 -1.73591545
   1.89193045  2.56972529 -0.26939091
   3.63710244  1.28486264 -0.26939091
   0.14675846  3.85458793 -0.26939091

 k-point   1 :   0.0000 0.0000 0.0000  plane waves:    5955
 k-point   2 :   0.1429 0.0000 0.0000  plane waves:    5921
 k-point   3 :   0.2857 0.0000 0.0000  plane waves:    5912
 k-point   4 :   0.4286-0.0000 0.0000  plane waves:    5917
 k-point   5 :   0.1429 0.1429 0.0000  plane waves:    5909
 k-point   6 :   0.2857 0.1429 0.0000  plane waves:    5895
 k-point   7 :   0.4286 0.1429 0.0000  plane waves:    5915
 k-point   8 :  -0.4286 0.1429 0.0000  plane waves:    5913
 k-point   9 :  -0.2857 0.1429 0.0000  plane waves:    5913
 k-point  10 :  -0.1429 0.1429 0.0000  plane waves:    5933
 k-point  11 :   0.2857 0.2857 0.0000  plane waves:    5907
 k-point  12 :   0.4286 0.2857 0.0000  plane waves:    5909
 k-point  13 :  -0.4286 0.2857 0.0000  plane waves:    5901
 k-point  14 :  -0.2857 0.2857 0.0000  plane waves:    5905
 k-point  15 :   0.4286 0.4286 0.0000  plane waves:    5905
 k-point  16 :  -0.4286 0.4286 0.0000  plane waves:    5916
 k-point  17 :  -0.0000-0.0000 0.1250  plane waves:    5933
 k-point  18 :   0.1429-0.0000 0.1250  plane waves:    5905
 k-point  19 :   0.2857 0.0000 0.1250  plane waves:    5912
 k-point  20 :   0.4286-0.0000 0.1250  plane waves:    5911
 k-point  21 :  -0.4286-0.0000 0.1250  plane waves:    5905
 k-point  22 :  -0.2857-0.0000 0.1250  plane waves:    5906
 k-point  23 :  -0.1429-0.0000 0.1250  plane waves:    5922
 k-point  24 :   0.1429 0.1429 0.1250  plane waves:    5891
 k-point  25 :   0.2857 0.1429 0.1250  plane waves:    5927
 k-point  26 :   0.4286 0.1429 0.1250  plane waves:    5922
 k-point  27 :  -0.4286 0.1429 0.1250  plane waves:    5891
 k-point  28 :  -0.2857 0.1429 0.1250  plane waves:    5910
 k-point  29 :  -0.1429 0.1429 0.1250  plane waves:    5908
 k-point  30 :   0.2857 0.2857 0.1250  plane waves:    5916
 k-point  31 :   0.4286 0.2857 0.1250  plane waves:    5924
 k-point  32 :  -0.4286 0.2857 0.1250  plane waves:    5910
 k-point  33 :  -0.2857 0.2857 0.1250  plane waves:    5906
 k-point  34 :  -0.1429 0.2857 0.1250  plane waves:    5901
 k-point  35 :   0.4286 0.4286 0.1250  plane waves:    5909
 k-point  36 :  -0.4286 0.4286 0.1250  plane waves:    5897
 k-point  37 :  -0.2857 0.4286 0.1250  plane waves:    5916
 k-point  38 :  -0.1429 0.4286 0.1250  plane waves:    5914
 k-point  39 :  -0.4286-0.4286 0.1250  plane waves:    5923
 k-point  40 :  -0.2857-0.4286 0.1250  plane waves:    5928
 k-point  41 :  -0.1429-0.4286 0.1250  plane waves:    5915
 k-point  42 :  -0.2857-0.2857 0.1250  plane waves:    5917
 k-point  43 :  -0.1429-0.2857 0.1250  plane waves:    5909
 k-point  44 :  -0.1429-0.1429 0.1250  plane waves:    5933
 k-point  45 :  -0.0000-0.0000 0.2500  plane waves:    5897
 k-point  46 :   0.1429-0.0000 0.2500  plane waves:    5904
 k-point  47 :   0.2857-0.0000 0.2500  plane waves:    5909
 k-point  48 :   0.4286-0.0000 0.2500  plane waves:    5909
 k-point  49 :  -0.4286 0.0000 0.2500  plane waves:    5891
 k-point  50 :  -0.2857-0.0000 0.2500  plane waves:    5912
 k-point  51 :  -0.1429-0.0000 0.2500  plane waves:    5901
 k-point  52 :   0.1429 0.1429 0.2500  plane waves:    5915
 k-point  53 :   0.2857 0.1429 0.2500  plane waves:    5915
 k-point  54 :   0.4286 0.1429 0.2500  plane waves:    5928
 k-point  55 :  -0.4286 0.1429 0.2500  plane waves:    5910
 k-point  56 :  -0.2857 0.1429 0.2500  plane waves:    5905
 k-point  57 :  -0.1429 0.1429 0.2500  plane waves:    5892
 k-point  58 :   0.2857 0.2857 0.2500  plane waves:    5913
 k-point  59 :   0.4286 0.2857 0.2500  plane waves:    5911
 k-point  60 :  -0.4286 0.2857 0.2500  plane waves:    5918
[...]
 k-point 102 :   0.1429-0.0000 0.5000  plane waves:    5914
 k-point 103 :   0.2857-0.0000 0.5000  plane waves:    5919
 k-point 104 :   0.4286-0.0000 0.5000  plane waves:    5926
 k-point 105 :   0.1429 0.1429 0.5000  plane waves:    5911
 k-point 106 :   0.2857 0.1429 0.5000  plane waves:    5920
 k-point 107 :   0.4286 0.1429 0.5000  plane waves:    5912
 k-point 108 :  -0.4286 0.1429 0.5000  plane waves:    5923
 k-point 109 :  -0.2857 0.1429 0.5000  plane waves:    5917
 k-point 110 :  -0.1429 0.1429 0.5000  plane waves:    5916
 k-point 111 :   0.2857 0.2857 0.5000  plane waves:    5916
 k-point 112 :   0.4286 0.2857 0.5000  plane waves:    5909
 k-point 113 :  -0.4286 0.2857 0.5000  plane waves:    5919
 k-point 114 :  -0.2857 0.2857 0.5000  plane waves:    5924
 k-point 115 :   0.4286 0.4286 0.5000  plane waves:    5909
 k-point 116 :  -0.4286 0.4286 0.5000  plane waves:    5924

 maximum and minimum number of plane-waves per node :      2987     2934

 maximum number of plane-waves:      5955
 maximum index in each direction:
   IXMAX=   13   IYMAX=   13   IZMAX=   12
   IXMIN=  -13   IYMIN=  -13   IZMIN=  -13

 parallel 3D FFT for wavefunctions:
    minimum data exchange during FFTs selected (reduces bandwidth)
 parallel 3D FFT for charge:
    minimum data exchange during FFTs selected (reduces bandwidth)

 Broyden mixing: mesh for mixing (old mesh)
   NGX = 25   NGY = 25   NGZ = 25
  (NGX  =108   NGY  =108   NGZ  =108)
  gives a total of  15625 points

 initial charge density was supplied:
 charge density of overlapping atoms calculated
 number of electron     116.0000000 magnetization
 keeping initial charge density in first step

 Maximum index for augmentation-charges        25268 (set IRDMAX)

 First call to EWALD:  gamma=   0.316
 Maximum number of real-space cells 3x 3x 3
 Maximum number of reciprocal cells 3x 3x 3

--------------------------------------- Iteration      1(   1)  ---------------------------------------

 eigenvalue-minimisations  : 17712
 total energy-change (2. order) : 0.1567358E+04  (-0.8290417E+04)
 number of electron     116.0000000 magnetization
 augmentation part      116.0000000 magnetization

 Free energy of the ion-electron system (eV)
  alpha Z        PSCENC =       648.24136325
  Ewald energy   TEWEN  =     -6676.73710374
  -Hartree energ DENC   =     -4722.67752371
  -exchange      EXHF   =         0.00000000
  -V(xc)+E(xc)   XCENC  =       549.19539683
  PAW double counting   =      9417.46121024    -9379.23717351
  entropy T*S    EENTRO =        -0.00061760
  eigenvalues    EBANDS =      -218.07260597
  atomic energy  EATOM  =     11949.18504973
  free energy    TOTEN  =      1567.35799551 eV

  energy without entropy =     1567.35861312  energy(sigma->0) =     1567.35830432

[...]

 eigenvalue-minimisations  : 18444
 total energy-change (2. order) :-0.1563833E+04  (-0.1519634E+04)
 number of electron     116.0000000 magnetization
 augmentation part      116.0000000 magnetization

[...]

 eigenvalue-minimisations  :     0
 total energy-change (2. order) : 0.1637090E-08  ( 0.7660364E-07)
 number of electron     116.0000000 magnetization
 augmentation part       16.8039873 magnetization

[...]

 eigenvalue-minimisations  :     0
 total energy-change (2. order) : 0.3658097E-06  (-0.3729550E-06)
 number of electron     116.0000000 magnetization
 augmentation part       16.8039928 magnetization

[...]

--------------------------------------- Iteration      1(  42)  ---------------------------------------

 eigenvalue-minimisations  :     0
 total energy-change (2. order) :-0.8512870E-09  (-0.5539635E-09)
 number of electron     116.0000000 magnetization
 augmentation part       16.8039969 magnetization

 Free energy of the ion-electron system (eV)
  alpha Z        PSCENC =       648.24136325
  Ewald energy   TEWEN  =     -6676.73710374
  -Hartree energ DENC   =     -5071.95746647
  -exchange      EXHF   =         0.00000000
  -V(xc)+E(xc)   XCENC  =       581.38030730
  PAW double counting   =     34531.64568310   -34468.30883392
  entropy T*S    EENTRO =        -0.00210753
  eigenvalues    EBANDS =     -1480.79658752
  atomic energy  EATOM  =     11949.18504973
  free energy    TOTEN  =        12.65030420 eV

  energy without entropy =       12.65241174  energy(sigma->0) =       12.65135797

  average scaling for gradient   0.7803

 average (electrostatic) potential at core
  the test charge radii are     0.7672  1.0818  0.9892
  (the norm of the test charge is              1.0000)
       1 -33.1106       2 -33.1106       3 -33.1107       4 -33.1107       5 -33.1107
       6 -33.1107       7 -33.1107       8 -33.1107       9 -77.2976      10 -78.1744
      11 -77.2976      12 -78.1745      13 -78.1743      14 -78.1745      15 -84.0052
      16 -84.0052

 E-fermi :   9.8570     XC(G=0): -12.4423     alpha+bet :-18.3002

 Fermi energy:         9.8569572933

 k-point     1 :       0.0000    0.0000    0.0000
  band No.  band energies     occupation
      1     -56.1828      2.00000
      2     -55.9122      2.00000
      3     -55.9121      2.00000
      4     -55.8621      2.00000
      5     -53.8116      2.00000
      6     -53.4600      2.00000
      7     -33.9565      2.00000
      8     -33.8996      2.00000
      9     -33.8995      2.00000
     10     -33.8682      2.00000
     11     -30.8515      2.00000
     12     -30.8511      2.00000
     13     -28.4918      2.00000
     14     -28.4051      2.00000
     15     -28.3825      2.00000
     16     -28.1050      2.00000
     17     -28.1049      2.00000
     18     -27.8984      2.00000
     19     -27.8590      2.00000
     20     -27.8588      2.00000
     21     -26.8342      2.00000
     22     -26.7441      2.00000
     23     -24.8945      2.00000
     24     -24.8944      2.00000
     25      -3.1940      2.00000
     26      -2.2604      2.00000
     27      -2.0371      2.00000
     28      -2.0369      2.00000
     29      -1.3823      2.00000
     30      -0.2547      2.00000
     31      -0.2546      2.00000
     32      -0.2039      2.00000
     33       0.3397      2.00000
     34       0.9746      2.00000
     35       1.2620      2.00000
     36       1.4134      2.00000
     37       1.4134      2.00000
     38       1.5607      2.00000
     39       1.7327      2.00000
     40       3.0610      2.00000
     41       3.0610      2.00000
     42       3.1972      2.00000
     43       4.3600      2.00000
     44       4.3601      2.00000
     45       4.3613      2.00000
     46       4.4390      2.00000
     47       6.2057      2.00000
     48       6.5631      2.00000
     49       6.5632      2.00000
     50       6.6345      2.00000
     51       7.6036      2.00000
     52       7.8796      2.00000
     53       7.8797      2.00000
     54       8.8487      2.00000
     55       9.1141      2.00000
     56       9.1142      2.00000
     57       9.4054      2.00000
     58       9.7070      2.00000
     59       9.7070      2.00000
     60       9.8504      1.36001
     61      10.6001      0.00000
     62      10.6894      0.00000
     63      10.8048      0.00000
     64      10.8142      0.00000
     65      10.8162      0.00000
     66      11.0222      0.00000
     67      11.4138      0.00000
     68      11.8866      0.00000
     69      11.9398      0.00000
     70      12.2001      0.00000
     71      13.0511      0.00000
     72      13.3208      0.00000

[...]

 k-point   116 :      -0.4286    0.4286    0.5000
  band No.  band energies     occupation
      1     -56.1769      2.00000
      2     -55.9185      2.00000
      3     -55.9123      2.00000
      4     -55.8633      2.00000
      5     -53.8019      2.00000
      6     -53.4679      2.00000
      7     -33.9552      2.00000
      8     -33.8998      2.00000
      9     -33.8992      2.00000
     10     -33.8692      2.00000
     11     -30.8488      2.00000
     12     -30.7890      2.00000
     13     -28.8063      2.00000
     14     -28.4919      2.00000
     15     -28.3943      2.00000
     16     -28.1078      2.00000
     17     -28.1065      2.00000
     18     -27.9543      2.00000
     19     -27.8018      2.00000
     20     -27.4218      2.00000
     21     -26.8302      2.00000
     22     -26.7481      2.00000
     23     -24.9840      2.00000
     24     -24.8953      2.00000
     25      -2.9292      2.00000
     26      -2.1771      2.00000
     27      -2.1610      2.00000
     28      -2.0002      2.00000
     29      -1.1762      2.00000
     30      -0.4153      2.00000
     31      -0.3659      2.00000
     32      -0.1715      2.00000
     33       0.4906      2.00000
     34       0.5741      2.00000
     35       1.0294      2.00000
     36       1.2082      2.00000
     37       1.3916      2.00000
     38       1.6083      2.00000
     39       1.8021      2.00000
     40       2.4767      2.00000
     41       3.1488      2.00000
     42       3.1946      2.00000
     43       4.5180      2.00000
     44       4.7393      2.00000
     45       5.2420      2.00000
     46       5.4825      2.00000
     47       5.5809      2.00000
     48       5.7830      2.00000
     49       6.5171      2.00000
     50       6.6706      2.00000
     51       7.0121      2.00000
     52       7.2289      2.00000
     53       7.4046      2.00000
     54       7.9337      2.00000
     55       8.5225      2.00000
     56       9.5103      2.00000
     57       9.5795      2.00000
     58       9.6384      2.00000
     59       9.7991      1.99996
     60       9.9172      0.00002
     61      10.0024      0.00000
     62      10.6855      0.00000
     63      11.2444      0.00000
     64      11.2472      0.00000
     65      11.3785      0.00000
     66      11.4303      0.00000
     67      11.8461      0.00000
     68      11.8603      0.00000
     69      12.4615      0.00000
     70      12.6115      0.00000
     71      13.2803      0.00000
     72      14.0587      0.00000

 soft charge-density along one line, spin component           1
         0         1         2         3         4         5         6         7         8         9
 total charge-density along one line

------------------------ aborting loop because EDIFF is reached ----------------------------------------

  FREE ENERGIE OF THE ION-ELECTRON SYSTEM (eV)
  free  energy   TOTEN  =        12.65030420 eV

  energy  without entropy=       12.65241174  energy(sigma->0) =       12.65135797

 writing wavefunctions