 vasp.6.2.0 18Jan21 (build Jan 05 2022 15:41:44) complex

 executed on             LinuxIFC date 2025.05.07  21:26:59

 INCAR:
   SYSTEM = routine with relax: pwdword
   ICHARG = 2
   NPAR = 6
   KPAR = 2
   NCORE = 2
   ADDGRID = T
   PREC = Acc
   ENCUT = 600
   METAGGA = R2SCAN
   LASPH = .TRUE.
   LMIXTAU = .FALSE.
   ALGO = A
   EDIFF = 1E-9
   NELM = 100
   NELMIN = 6
   IALGO = 38
   LREAL = F
   NSW = 0
   ISIF = -1
   ISMEAR = 0
   SIGMA = 0.02

 POTCAR:    PAW_PBE B 06Sep2000
 POTCAR:    PAW_PBE Si 05Jan2001
|           W    W    AA    RRRRR   N    N  II  N    N   GGGG   !!!           |
|           W    W   A  A   R    R  NN   N  II  NN   N  G    G  !!!           |
|           W    W  A    A  R    R  N N  N  II  N N  N  G       !!!           |
|           W WW W  AAAAAA  RRRRR   N  N N  II  N  N N  G  GGG   !            |
|           WW  WW  A    A  R   R   N   NN  II  N   NN  G    G                |
|           W    W  A    A  R    R  N    N  II  N    N   GGGG   !!!           |
|     For optimal performance we recommend to set                             |
|       NCORE = 2 up to number-of-cores-per-socket                            |
|     This setting can greatly improve the performance of VASP for DFT.       |
|     The default, NCORE=1 might be grossly inefficient on modern             |
|     multi-core architectures or massively parallel machines. Do your        |
|     Unfortunately you need to use the default for GW and RPA                |
|     calculations (for HF NCORE is supported but not extensively tested      |
|     yet).                                                                   |

 POTCAR:    PAW_PBE B 06Sep2000
   VRHFIN =B: s2p1

   TITEL  = PAW_PBE B 06Sep2000
   POMASS =   10.811; ZVAL   =    3.000    mass and valenz
   ENMAX  =  318.614; ENMIN  =  238.960 eV

 POTCAR:    PAW_PBE Si 05Jan2001
   VRHFIN =Si: s2p2

   TITEL  = PAW_PBE Si 05Jan2001
   POMASS =   28.085; ZVAL   =    4.000    mass and valenz
   ENMAX  =  245.345; ENMIN  =  184.009 eV

  PAW_PBE B 06Sep2000                   :
  PAW_PBE Si 05Jan2001                  :

 POSCAR: EA256
  positions in direct lattice

 METAGGA = R2SCA    LMAXTAU =  6    LMIXTAU =  F

 ion  position               nearest neighbor table
   1  0.333  0.667  0.750-   6 2.51   7 2.51   7 2.51   6 2.51   8 2.51   8 2.51   5 2.64   5 2.64
                             4 2.64   4 2.64   3 2.64   3 2.64
   2  0.667  0.333  0.250-   3 2.51   4 2.51   3 2.51   4 2.51   5 2.51   5 2.51   8 2.64   8 2.64
                             7 2.64   7 2.64   6 2.64   6 2.64
   3  0.169  0.338  0.250-   5 2.47   4 2.47   2 2.51   2 2.51   5 2.54   4 2.54   1 2.64   1 2.64
                             7 2.67   7 2.67   8 2.67   8 2.67
   4  0.662  0.831  0.250-   5 2.47   3 2.47   2 2.51   2 2.51   5 2.54   3 2.54   1 2.64   1 2.64
                             6 2.67   6 2.67   8 2.67   8 2.67
   5  0.169  0.831  0.250-   3 2.47   4 2.47   2 2.51   2 2.51   3 2.54   4 2.54   1 2.64   1 2.64
                             6 2.67   7 2.67   7 2.67   6 2.67
   6  0.831  0.662  0.750-   8 2.47   7 2.47   1 2.51   1 2.51   8 2.54   7 2.54   2 2.64   2 2.64
                             4 2.67   4 2.67   5 2.67   5 2.67
   7  0.338  0.169  0.750-   8 2.47   6 2.47   1 2.51   1 2.51   8 2.54   6 2.54   2 2.64   2 2.64
                             3 2.67   3 2.67   5 2.67   5 2.67
   8  0.831  0.169  0.750-   6 2.47   7 2.47   1 2.51   1 2.51   7 2.54   6 2.54   2 2.64   2 2.64
                             3 2.67   4 2.67   4 2.67   3 2.67

  LATTYP: Found a hexagonal cell.
 ALAT       =     5.0128254278
 C/A-ratio  =     0.8883700548

  Lattice vectors:

 A1 = (   2.5064130000,  -4.3412340000,   0.0000000000)
 A2 = (   2.5064130000,   4.3412340000,   0.0000000000)
 A3 = (   0.0000000000,   0.0000000000,   4.4532440000)

Analysis of symmetry for initial positions (statically):
 Subroutine PRICEL returns:
 Original cell was already a primitive cell.

 Routine SETGRP: Setting up the symmetry group for a
 hexagonal supercell.

 Subroutine GETGRP returns: Found 24 space group operations
 (whereof 12 operations were pure point group operations)
 out of a pool of 24 trial point group operations.

The static configuration has the point symmetry D_3d.
 The point group associated with its full space group is D_6h.

Analysis of symmetry for dynamics (positions and initial velocities):
 Subroutine PRICEL returns:
 Original cell was already a primitive cell.

 Routine SETGRP: Setting up the symmetry group for a
 hexagonal supercell.

 Subroutine GETGRP returns: Found 24 space group operations
 (whereof 12 operations were pure point group operations)
 out of a pool of 24 trial point group operations.

The dynamic configuration has the point symmetry D_3d.
 The point group associated with its full space group is D_6h.

 Subroutine INISYM returns: Found 24 space group operations
 (whereof 12 operations are pure point group operations),
 and found     1 'primitive' translations

                                     Primitive cell

  volume of cell :      96.9108

  direct lattice vectors                    reciprocal lattice vectors
     2.506413000 -4.341234000  0.000000000     0.199488273 -0.115174625  0.000000000
     2.506413000  4.341234000  0.000000000     0.199488273  0.115174625  0.000000000
     0.000000000  0.000000000  4.453244000     0.000000000  0.000000000  0.224555403

  length of vectors
     5.012825428  5.012825428  4.453244000     0.230349225  0.230349225  0.224555403

  position of ions in fractional coordinates (direct lattice)
     0.333333000  0.666667000  0.750000000
     0.666667000  0.333333000  0.250000000
     0.169138000  0.338275000  0.250000000
     0.661725000  0.830862000  0.250000000
     0.169138000  0.830862000  0.250000000
     0.830862000  0.661725000  0.750000000
     0.338275000  0.169138000  0.750000000
     0.830862000  0.169138000  0.750000000

  ion indices of the primitive-cell ions
   primitive index   ion index
                 1           1
                 2           2
                 3           3
                 4           4
                 5           5
                 6           6
                 7           7
                 8           8

 KPOINTS: EA

Automatic generation of k-mesh.
 Grid dimensions read from file:
 generate k-points for:    8    8    8

 Generating k-lattice:

  Cartesian coordinates                     Fractional coordinates (reciprocal lattice)
     0.024936034 -0.014396828  0.000000000     0.125000000  0.000000000  0.000000000
     0.024936034  0.014396828  0.000000000     0.000000000  0.125000000  0.000000000
     0.000000000  0.000000000  0.028069425     0.000000000  0.000000000  0.125000000

  Length of vectors
     0.028793653  0.028793653  0.028069425

  Shift w.r.t. Gamma in fractional coordinates (k-lattice)
     0.000000000  0.000000000  0.000000000

 Subroutine IBZKPT returns following result:

 Found     50 irreducible k-points:

 Following reciprocal coordinates:
            Coordinates               Weight
  0.000000  0.000000  0.000000      1.000000
  0.125000  0.000000  0.000000      6.000000
  0.250000  0.000000  0.000000      6.000000
  0.375000 -0.000000  0.000000      6.000000
  0.500000  0.000000  0.000000      3.000000
  0.125000  0.125000  0.000000      6.000000
  0.250000  0.125000  0.000000     12.000000
  0.375000  0.125000  0.000000     12.000000
  0.250000  0.250000  0.000000      6.000000
  0.375000  0.250000  0.000000      6.000000
  0.000000  0.000000  0.125000      2.000000
  0.125000  0.000000  0.125000     12.000000
  0.250000  0.000000  0.125000     12.000000
  0.375000 -0.000000  0.125000     12.000000
  0.500000  0.000000  0.125000      6.000000
  0.125000  0.125000  0.125000     12.000000
  0.250000  0.125000  0.125000     24.000000
  0.375000  0.125000  0.125000     24.000000
  0.250000  0.250000  0.125000     12.000000
  0.375000  0.250000  0.125000     12.000000
  0.000000  0.000000  0.250000      2.000000
  0.125000  0.000000  0.250000     12.000000
  0.250000  0.000000  0.250000     12.000000
  0.375000 -0.000000  0.250000     12.000000
  0.500000  0.000000  0.250000      6.000000
  0.125000  0.125000  0.250000     12.000000
  0.250000  0.125000  0.250000     24.000000
  0.375000  0.125000  0.250000     24.000000
  0.250000  0.250000  0.250000     12.000000
  0.375000  0.250000  0.250000     12.000000
  0.000000  0.000000  0.375000      2.000000
  0.125000  0.000000  0.375000     12.000000
  0.250000  0.000000  0.375000     12.000000
  0.375000 -0.000000  0.375000     12.000000
  0.500000  0.000000  0.375000      6.000000
  0.125000  0.125000  0.375000     12.000000
  0.250000  0.125000  0.375000     24.000000
  0.375000  0.125000  0.375000     24.000000
  0.250000  0.250000  0.375000     12.000000
  0.375000  0.250000  0.375000     12.000000
  0.000000  0.000000  0.500000      1.000000
  0.125000  0.000000  0.500000      6.000000
  0.250000  0.000000  0.500000      6.000000
  0.375000 -0.000000  0.500000      6.000000
  0.500000  0.000000  0.500000      3.000000
  0.125000  0.125000  0.500000      6.000000
  0.250000  0.125000  0.500000     12.000000
  0.375000  0.125000  0.500000     12.000000
  0.250000  0.250000  0.500000      6.000000
  0.375000  0.250000  0.500000      6.000000

 Following cartesian coordinates:
            Coordinates               Weight
  0.000000  0.000000  0.000000      1.000000
  0.024936 -0.014397  0.000000      6.000000
  0.049872 -0.028794  0.000000      6.000000
  0.074808 -0.043190  0.000000      6.000000
  0.099744 -0.057587  0.000000      3.000000
  0.049872  0.000000  0.000000      6.000000
  0.074808 -0.014397  0.000000     12.000000
  0.099744 -0.028794  0.000000     12.000000
  0.099744  0.000000  0.000000      6.000000
  0.124680 -0.014397  0.000000      6.000000
  0.000000  0.000000  0.028069      2.000000
  0.024936 -0.014397  0.028069     12.000000
  0.049872 -0.028794  0.028069     12.000000
  0.074808 -0.043190  0.028069     12.000000
  0.099744 -0.057587  0.028069      6.000000
  0.049872  0.000000  0.028069     12.000000
  0.074808 -0.014397  0.028069     24.000000
  0.099744 -0.028794  0.028069     24.000000
  0.099744  0.000000  0.028069     12.000000
  0.124680 -0.014397  0.028069     12.000000
  0.000000  0.000000  0.056139      2.000000
  0.024936 -0.014397  0.056139     12.000000
  0.049872 -0.028794  0.056139     12.000000
  0.074808 -0.043190  0.056139     12.000000
  0.099744 -0.057587  0.056139      6.000000
  0.049872  0.000000  0.056139     12.000000
  0.074808 -0.014397  0.056139     24.000000
  0.099744 -0.028794  0.056139     24.000000
  0.099744  0.000000  0.056139     12.000000
  0.124680 -0.014397  0.056139     12.000000
  0.000000  0.000000  0.084208      2.000000
  0.024936 -0.014397  0.084208     12.000000
  0.049872 -0.028794  0.084208     12.000000
  0.074808 -0.043190  0.084208     12.000000
  0.099744 -0.057587  0.084208      6.000000
  0.049872  0.000000  0.084208     12.000000
  0.074808 -0.014397  0.084208     24.000000
  0.099744 -0.028794  0.084208     24.000000
  0.099744  0.000000  0.084208     12.000000
  0.124680 -0.014397  0.084208     12.000000
[...]
   LINTERFAST=   F  fast interpolation
   KINTER  =     0    interpolate to denser k-point grid
   CSHIFT  =0.1000    complex shift for real part using Kramers Kronig
   OMEGAMAX=  -1.0    maximum frequency
   DEG_THRESHOLD= 0.2000000E-02 threshold for treating states as degnerate
   RTIME   =   -0.100 relaxation time in fs
  (WPLASMAI=    0.000 imaginary part of plasma frequency in eV, 0.658/RTIME)
   DFIELD  = 0.0000000 0.0000000 0.0000000 field for delta impulse in time

 Orbital magnetization related:
   ORBITALMAG=     F  switch on orbital magnetization
   LCHIMAG   =     F  perturbation theory with respect to B field
   DQ        =  0.001000  dq finite difference perturbation B field
   LLRAUG    =     F  two centre corrections for induced B field

 Static calculation
 charge density and potential will be updated during run
 non-spin polarized calculation
 Conjugate gradient for all bands (Freysoldt, et al. PRB 79, 241103 (2009))
 preconditioned conjugated gradient
 perform sub-space diagonalisation
    before iterative eigenvector-optimisation
 modified Broyden-mixing scheme, WC =      100.0
 initial mixing is a Kerker type mixing with AMIX =  0.4000 and BMIX =      1.0000
 Hartree-type preconditioning will be used
 using additional bands            9
 reciprocal scheme for non local part
 use partial core corrections
 no Harris-corrections to forces
 use gradient corrections
 use of overlap-Matrix (Vanderbilt PP)
 Gauss-broadening in eV      SIGMA  =   0.02

  energy-cutoff  :      600.00
  volume of cell :       96.91
      direct lattice vectors                 reciprocal lattice vectors
     2.506413000 -4.341234000  0.000000000     0.199488273 -0.115174625  0.000000000
     2.506413000  4.341234000  0.000000000     0.199488273  0.115174625  0.000000000
     0.000000000  0.000000000  4.453244000     0.000000000  0.000000000  0.224555403

  length of vectors
     5.012825428  5.012825428  4.453244000     0.230349225  0.230349225  0.224555403

 k-points in units of 2pi/SCALE and weight: EA
   0.00000000  0.00000000  0.00000000       0.002
   0.02493603 -0.01439683  0.00000000       0.012
   0.04987207 -0.02879366  0.00000000       0.012
   0.07480810 -0.04319048  0.00000000       0.012
   0.09974414 -0.05758731  0.00000000       0.006
   0.04987207  0.00000000  0.00000000       0.012
   0.07480810 -0.01439683  0.00000000       0.023
   0.09974414 -0.02879366  0.00000000       0.023
   0.09974414  0.00000000  0.00000000       0.012
   0.12468017 -0.01439683  0.00000000       0.012
   0.00000000  0.00000000  0.02806943       0.004
   0.02493603 -0.01439683  0.02806943       0.023
   0.04987207 -0.02879366  0.02806943       0.023
   0.07480810 -0.04319048  0.02806943       0.023
   0.09974414 -0.05758731  0.02806943       0.012
   0.04987207  0.00000000  0.02806943       0.023
   0.07480810 -0.01439683  0.02806943       0.047
   0.09974414 -0.02879366  0.02806943       0.047
   0.09974414  0.00000000  0.02806943       0.023
   0.12468017 -0.01439683  0.02806943       0.023
   0.00000000  0.00000000  0.05613885       0.004
   0.02493603 -0.01439683  0.05613885       0.023
   0.04987207 -0.02879366  0.05613885       0.023
   0.07480810 -0.04319048  0.05613885       0.023
   0.09974414 -0.05758731  0.05613885       0.012
   0.04987207  0.00000000  0.05613885       0.023
   0.07480810 -0.01439683  0.05613885       0.047
   0.09974414 -0.02879366  0.05613885       0.047
   0.09974414  0.00000000  0.05613885       0.023
   0.12468017 -0.01439683  0.05613885       0.023
   0.00000000  0.00000000  0.08420828       0.004
   0.02493603 -0.01439683  0.08420828       0.023
   0.04987207 -0.02879366  0.08420828       0.023
   0.07480810 -0.04319048  0.08420828       0.023
   0.09974414 -0.05758731  0.08420828       0.012
   0.04987207  0.00000000  0.08420828       0.023
   0.07480810 -0.01439683  0.08420828       0.047
   0.09974414 -0.02879366  0.08420828       0.047
   0.09974414  0.00000000  0.08420828       0.023
   0.12468017 -0.01439683  0.08420828       0.023
   0.00000000  0.00000000  0.11227770       0.002
   0.02493603 -0.01439683  0.11227770       0.012
   0.04987207 -0.02879366  0.11227770       0.012
   0.07480810 -0.04319048  0.11227770       0.012
   0.09974414 -0.05758731  0.11227770       0.006
   0.04987207  0.00000000  0.11227770       0.012
   0.07480810 -0.01439683  0.11227770       0.023
   0.09974414 -0.02879366  0.11227770       0.023
   0.09974414  0.00000000  0.11227770       0.012
   0.12468017 -0.01439683  0.11227770       0.012

 k-points in reciprocal lattice and weights: EA
   0.00000000  0.00000000  0.00000000       0.002
   0.12500000  0.00000000  0.00000000       0.012
   0.25000000  0.00000000  0.00000000       0.012
   0.37500000 -0.00000000  0.00000000       0.012
   0.50000000  0.00000000  0.00000000       0.006
   0.12500000  0.12500000  0.00000000       0.012
   0.25000000  0.12500000  0.00000000       0.023
   0.37500000  0.12500000  0.00000000       0.023
   0.25000000  0.25000000  0.00000000       0.012
   0.37500000  0.25000000  0.00000000       0.012
   0.00000000  0.00000000  0.12500000       0.004
   0.12500000  0.00000000  0.12500000       0.023
   0.25000000  0.00000000  0.12500000       0.023
   0.37500000 -0.00000000  0.12500000       0.023
   0.50000000  0.00000000  0.12500000       0.012
   0.12500000  0.12500000  0.12500000       0.023
   0.25000000  0.12500000  0.12500000       0.047
   0.37500000  0.12500000  0.12500000       0.047
   0.25000000  0.25000000  0.12500000       0.023
   0.37500000  0.25000000  0.12500000       0.023
   0.00000000  0.00000000  0.25000000       0.004
   0.12500000  0.00000000  0.25000000       0.023
   0.25000000  0.00000000  0.25000000       0.023
   0.37500000 -0.00000000  0.25000000       0.023
   0.50000000  0.00000000  0.25000000       0.012
   0.12500000  0.12500000  0.25000000       0.023
   0.25000000  0.12500000  0.25000000       0.047
   0.37500000  0.12500000  0.25000000       0.047
   0.25000000  0.25000000  0.25000000       0.023
   0.37500000  0.25000000  0.25000000       0.023
   0.00000000  0.00000000  0.37500000       0.004
   0.12500000  0.00000000  0.37500000       0.023
   0.25000000  0.00000000  0.37500000       0.023
   0.37500000 -0.00000000  0.37500000       0.023
   0.50000000  0.00000000  0.37500000       0.012
   0.12500000  0.12500000  0.37500000       0.023
   0.25000000  0.12500000  0.37500000       0.047
   0.37500000  0.12500000  0.37500000       0.047
   0.25000000  0.25000000  0.37500000       0.023
   0.37500000  0.25000000  0.37500000       0.023
   0.00000000  0.00000000  0.50000000       0.002
   0.12500000  0.00000000  0.50000000       0.012
   0.25000000  0.00000000  0.50000000       0.012
   0.37500000 -0.00000000  0.50000000       0.012
   0.50000000  0.00000000  0.50000000       0.006
   0.12500000  0.12500000  0.50000000       0.012
   0.25000000  0.12500000  0.50000000       0.023
   0.37500000  0.12500000  0.50000000       0.023
   0.25000000  0.25000000  0.50000000       0.012
   0.37500000  0.25000000  0.50000000       0.012

 position of ions in fractional coordinates (direct lattice)
   0.33333300  0.66666700  0.75000000
   0.66666700  0.33333300  0.25000000
   0.16913800  0.33827500  0.25000000
   0.66172500  0.83086200  0.25000000
   0.16913800  0.83086200  0.25000000
   0.83086200  0.66172500  0.75000000
   0.33827500  0.16913800  0.75000000
   0.83086200  0.16913800  0.75000000

 position of ions in cartesian coordinates  (Angst):
   2.50641300  1.44708089  3.33993300
   2.50641300 -1.44708089  1.11331100
   1.27178654  0.73426330  1.11331100
   3.74103946  0.73426330  1.11331100
   2.50641300  2.87269873  1.11331100
   3.74103946 -0.73426330  3.33993300
   1.27178654 -0.73426330  3.33993300
   2.50641300 -2.87269873  3.33993300

 k-point   1 :   0.0000 0.0000 0.0000  plane waves:    3215
 k-point   2 :   0.1250 0.0000 0.0000  plane waves:    3241
 k-point   3 :   0.2500 0.0000 0.0000  plane waves:    3233
 k-point   4 :   0.3750-0.0000 0.0000  plane waves:    3218
 k-point   5 :   0.5000 0.0000 0.0000  plane waves:    3216
 k-point   6 :   0.1250 0.1250 0.0000  plane waves:    3240
 k-point   7 :   0.2500 0.1250 0.0000  plane waves:    3225
 k-point   8 :   0.3750 0.1250 0.0000  plane waves:    3231
 k-point   9 :   0.2500 0.2500 0.0000  plane waves:    3234
 k-point  10 :   0.3750 0.2500 0.0000  plane waves:    3232
 k-point  11 :   0.0000 0.0000 0.1250  plane waves:    3216
 k-point  12 :   0.1250 0.0000 0.1250  plane waves:    3225
 k-point  13 :   0.2500 0.0000 0.1250  plane waves:    3222
 k-point  14 :   0.3750-0.0000 0.1250  plane waves:    3221
 k-point  15 :   0.5000 0.0000 0.1250  plane waves:    3220
 k-point  16 :   0.1250 0.1250 0.1250  plane waves:    3227
 k-point  17 :   0.2500 0.1250 0.1250  plane waves:    3231
 k-point  18 :   0.3750 0.1250 0.1250  plane waves:    3227
 k-point  19 :   0.2500 0.2500 0.1250  plane waves:    3245
 k-point  20 :   0.3750 0.2500 0.1250  plane waves:    3240
 k-point  21 :   0.0000 0.0000 0.2500  plane waves:    3222
 k-point  22 :   0.1250 0.0000 0.2500  plane waves:    3217
 k-point  23 :   0.2500 0.0000 0.2500  plane waves:    3219
 k-point  24 :   0.3750-0.0000 0.2500  plane waves:    3236
 k-point  25 :   0.5000 0.0000 0.2500  plane waves:    3236
 k-point  26 :   0.1250 0.1250 0.2500  plane waves:    3219
 k-point  27 :   0.2500 0.1250 0.2500  plane waves:    3238
 k-point  28 :   0.3750 0.1250 0.2500  plane waves:    3243
 k-point  29 :   0.2500 0.2500 0.2500  plane waves:    3248
 k-point  30 :   0.3750 0.2500 0.2500  plane waves:    3250
 k-point  31 :   0.0000 0.0000 0.3750  plane waves:    3204
 k-point  32 :   0.1250 0.0000 0.3750  plane waves:    3220
 k-point  33 :   0.2500 0.0000 0.3750  plane waves:    3230
 k-point  34 :   0.3750-0.0000 0.3750  plane waves:    3235
 k-point  35 :   0.5000 0.0000 0.3750  plane waves:    3244
 k-point  36 :   0.1250 0.1250 0.3750  plane waves:    3230
 k-point  37 :   0.2500 0.1250 0.3750  plane waves:    3244
 k-point  38 :   0.3750 0.1250 0.3750  plane waves:    3247
 k-point  39 :   0.2500 0.2500 0.3750  plane waves:    3248
 k-point  40 :   0.3750 0.2500 0.3750  plane waves:    3235
 k-point  41 :   0.0000 0.0000 0.5000  plane waves:    3210
 k-point  42 :   0.1250 0.0000 0.5000  plane waves:    3214
 k-point  43 :   0.2500 0.0000 0.5000  plane waves:    3240
 k-point  44 :   0.3750-0.0000 0.5000  plane waves:    3234
 k-point  45 :   0.5000 0.0000 0.5000  plane waves:    3244
 k-point  46 :   0.1250 0.1250 0.5000  plane waves:    3220
 k-point  47 :   0.2500 0.1250 0.5000  plane waves:    3240
 k-point  48 :   0.3750 0.1250 0.5000  plane waves:    3244
 k-point  49 :   0.2500 0.2500 0.5000  plane waves:    3254
 k-point  50 :   0.3750 0.2500 0.5000  plane waves:    3242

 maximum and minimum number of plane-waves per node :      1647     1581

 maximum number of plane-waves:      3254
 maximum index in each direction:
   IXMAX=   10   IYMAX=   10   IZMAX=    8
   IXMIN=  -10   IYMIN=  -10   IZMIN=   -9

 parallel 3D FFT for wavefunctions:
    minimum data exchange during FFTs selected (reduces bandwidth)
 parallel 3D FFT for charge:
    minimum data exchange during FFTs selected (reduces bandwidth)

 Broyden mixing: mesh for mixing (old mesh)
   NGX = 21   NGY = 21   NGZ = 17
  (NGX  = 80   NGY  = 80   NGZ  = 72)
  gives a total of   7497 points

 initial charge density was supplied:
 charge density of overlapping atoms calculated
 number of electron      30.0000000 magnetization
 keeping initial charge density in first step

 Maximum index for augmentation-charges        13845 (set IRDMAX)

 First call to EWALD:  gamma=   0.386
 Maximum number of real-space cells 3x 3x 3
 Maximum number of reciprocal cells 3x 3x 3

--------------------------------------- Iteration      1(   1)  ---------------------------------------

 eigenvalue-minimisations  :  2400
 total energy-change (2. order) : 0.3427298E+02  (-0.1623294E+04)
 number of electron      30.0000000 magnetization
 augmentation part       30.0000000 magnetization

 Free energy of the ion-electron system (eV)
  alpha Z        PSCENC =        29.82889321
  Ewald energy   TEWEN  =     -1024.44095619
  -Hartree energ DENC   =        -5.27234867
  -exchange      EXHF   =         0.00000000
  -V(xc)+E(xc)   XCENC  =        -8.48557446
  PAW double counting   =       583.06613608     -518.44463209
  entropy T*S    EENTRO =        -0.00035391
  eigenvalues    EBANDS =       217.28325363
  atomic energy  EATOM  =       760.73855882
  free energy    TOTEN  =        34.27297642 eV

  energy without entropy =       34.27333033  energy(sigma->0) =       34.27315338

[...]

 eigenvalue-minimisations  :  3312
 total energy-change (2. order) :-0.9434806E+02  (-0.9132303E+02)
 number of electron      30.0000000 magnetization
 augmentation part       30.0000000 magnetization

[...]

 eigenvalue-minimisations  :     0
 total energy-change (2. order) :-0.1450644E-09  (-0.3638835E-08)
 number of electron      30.0000000 magnetization
 augmentation part       -1.4330410 magnetization

[...]

--------------------------------------- Iteration      1(  20)  ---------------------------------------

 eigenvalue-minimisations  :     0
 total energy-change (2. order) : 0.4570211E-09  (-0.6880876E-09)
 number of electron      30.0000000 magnetization
 augmentation part       -1.4330384 magnetization

 Free energy of the ion-electron system (eV)
  alpha Z        PSCENC =        29.82889321
  Ewald energy   TEWEN  =     -1024.44095619
  -Hartree energ DENC   =        -4.92759889
  -exchange      EXHF   =         0.00000000
  -V(xc)+E(xc)   XCENC  =        -5.20700123
  PAW double counting   =      3857.97976475    -3793.50226835
  entropy T*S    EENTRO =        -0.00026924
  eigenvalues    EBANDS =       120.89415485
  atomic energy  EATOM  =       760.73855882
  free energy    TOTEN  =       -58.63672227 eV

  energy without entropy =      -58.63645304  energy(sigma->0) =      -58.63658765

  average scaling for gradient   2.0007

 average (electrostatic) potential at core
  the test charge radii are     0.7672  0.9892
  (the norm of the test charge is              1.0000)
       1 -24.8234       2 -24.8234       3 -82.8038       4 -82.8038       5 -82.8038
       6 -82.8038       7 -82.8038       8 -82.8038

 E-fermi :  10.3611     XC(G=0): -12.3373     alpha+bet :-17.1400

 Fermi energy:        10.3610711687

 k-point     1 :       0.0000    0.0000    0.0000
  band No.  band energies     occupation
      1      -5.7371      2.00000
      2       1.1925      2.00000
      3       1.8964      2.00000
      4       2.0224      2.00000
      5       2.0224      2.00000
      6       2.1874      2.00000
      7       2.1897      2.00000
      8       2.3734      2.00000
      9       2.3734      2.00000
     10       8.1212      2.00000
     11       8.4920      2.00000
     12       8.4921      2.00000
     13       8.8095      2.00000
     14       8.8915      2.00000
     15       9.1872      2.00000
     16       9.1872      2.00000
     17       9.8264      2.00000
     18       9.8264      2.00000
     19      10.2014      2.00000
     20      11.3666      0.00000
     21      11.3666      0.00000
     22      15.2097      0.00000
     23      15.2097      0.00000
     24      16.6494      0.00000

[...]

 k-point    50 :       0.3750    0.2500    0.5000
  band No.  band energies     occupation
      1      -1.7070      2.00000
      2      -1.7070      2.00000
      3      -1.3734      2.00000
      4      -1.3734      2.00000
      5      -0.4191      2.00000
      6      -0.4191      2.00000
      7       5.0660      2.00000
      8       5.0660      2.00000
      9       6.9104      2.00000
     10       6.9104      2.00000
     11       7.7052      2.00000
     12       7.7052      2.00000
     13      11.8392      0.00000
     14      11.8392      0.00000
     15      12.4092      0.00000
     16      12.4092      0.00000
     17      12.5404      0.00000
     18      12.5404      0.00000
     19      12.9476      0.00000
     20      12.9476      0.00000
     21      13.6987      0.00000
     22      13.6987      0.00000
     23      14.0569      0.00000
     24      14.0569      0.00000

 soft charge-density along one line, spin component           1
         0         1         2         3         4         5         6         7         8         9
 total charge-density along one line

------------------------ aborting loop because EDIFF is reached ----------------------------------------

  FREE ENERGIE OF THE ION-ELECTRON SYSTEM (eV)
  free  energy   TOTEN  =       -58.63672227 eV

  energy  without entropy=      -58.63645304  energy(sigma->0) =      -58.63658765

 writing wavefunctions