 vasp.6.2.0 18Jan21 (build Jan 05 2022 15:41:44) complex

 executed on             LinuxIFC date 2025.05.07  21:23:14

 INCAR:
   SYSTEM = routine with relax: pwdword
   ICHARG = 2
   NPAR = 6
   KPAR = 2
   NCORE = 2
   ADDGRID = T
   PREC = Acc
   ENCUT = 600
   METAGGA = R2SCAN
   LASPH = .TRUE.
   LMIXTAU = .FALSE.
   ALGO = A
   EDIFF = 1E-9
   NELM = 100
   NELMIN = 6
   IALGO = 38
   LREAL = F
   NSW = 0
   ISIF = -1
   ISMEAR = 0
   SIGMA = 0.02

 POTCAR:    PAW_PBE B 06Sep2000
 POTCAR:    PAW_PBE Mo_sv 02Feb2006
|           W    W    AA    RRRRR   N    N  II  N    N   GGGG   !!!           |
|           W    W   A  A   R    R  NN   N  II  NN   N  G    G  !!!           |
|           W    W  A    A  R    R  N N  N  II  N N  N  G       !!!           |
|           W WW W  AAAAAA  RRRRR   N  N N  II  N  N N  G  GGG   !            |
|           WW  WW  A    A  R   R   N   NN  II  N   NN  G    G                |
|           W    W  A    A  R    R  N    N  II  N    N   GGGG   !!!           |
|     For optimal performance we recommend to set                             |
|       NCORE = 2 up to number-of-cores-per-socket                            |
|     This setting can greatly improve the performance of VASP for DFT.       |
|     The default, NCORE=1 might be grossly inefficient on modern             |
|     multi-core architectures or massively parallel machines. Do your        |
|     Unfortunately you need to use the default for GW and RPA                |
|     calculations (for HF NCORE is supported but not extensively tested      |
|     yet).                                                                   |

 POTCAR:    PAW_PBE B 06Sep2000
   VRHFIN =B: s2p1

   TITEL  = PAW_PBE B 06Sep2000
   POMASS =   10.811; ZVAL   =    3.000    mass and valenz
   ENMAX  =  318.614; ENMIN  =  238.960 eV

 POTCAR:    PAW_PBE Mo_sv 02Feb2006
   VRHFIN =Mo: 4p5s4d

   TITEL  = PAW_PBE Mo_sv 02Feb2006
   POMASS =   95.940; ZVAL   =   14.000    mass and valenz
   ENMAX  =  242.676; ENMIN  =  182.007 eV

  PAW_PBE B 06Sep2000                   :
  PAW_PBE Mo_sv 02Feb2006               :

 POSCAR: EA251
  positions in direct lattice

 METAGGA = R2SCA    LMAXTAU =  6    LMIXTAU =  F

 ion  position               nearest neighbor table
   1  0.470  0.720  0.439-   3 1.87   3 1.87   8 2.31   8 2.31   8 2.31   8 2.31   6 2.33   6 2.33
                             5 2.51
   2  0.220  0.970  0.939-   4 1.87   4 1.87   7 2.31   7 2.31   7 2.31   7 2.31   5 2.33   5 2.33
                             6 2.51
   3  0.530  0.280  0.561-   1 1.87   1 1.87   6 2.31   6 2.31   6 2.31   6 2.31   8 2.33   8 2.33
                             7 2.51
   4  0.780  0.030  0.061-   2 1.87   2 1.87   5 2.31   5 2.31   5 2.31   5 2.31   7 2.33   7 2.33
                             8 2.51
   5  0.322  0.572  0.144-   4 2.31   4 2.31   4 2.31   4 2.31   2 2.33   2 2.33   1 2.51   8 2.85
                             8 2.85   8 2.85   8 2.85   7 2.89   7 2.90
   6  0.072  0.822  0.644-   3 2.31   3 2.31   3 2.31   3 2.31   1 2.33   1 2.33   2 2.51   7 2.85
                             7 2.85   7 2.85   7 2.85   8 2.90   8 2.90
   7  0.678  0.428  0.856-   2 2.31   2 2.31   2 2.31   2 2.31   4 2.33   4 2.33   3 2.51   6 2.85
                             6 2.85   6 2.85   6 2.85   5 2.89   5 2.90
   8  0.928  0.178  0.356-   1 2.31   1 2.31   1 2.31   1 2.31   3 2.33   3 2.33   4 2.51   5 2.85
                             5 2.85   5 2.85   5 2.85   6 2.90   6 2.90

  Warning from LATTYP: Got some problem with cell dimensions!
  Tried to take original basis but could not verify dimensions!
  LATTYP: Found a base centered monoclinic cell.
 ALAT       =     4.4065691617
 B/A-ratio  =     1.0002060146
 C/A-ratio  =     1.9913449038
 COS(beta)  =    -0.2507672257

  Lattice vectors:

 A1 = (  -3.0666444200,   0.0003813400,   0.5537368100)
 A2 = (   0.1002580300,  -3.0650031700,   0.5537362600)
 A3 = (   2.9661184600,   3.0643455800,   7.6689331500)

Analysis of symmetry for initial positions (statically):
 Subroutine PRICEL returns:
 Original cell was already a primitive cell.

 Routine SETGRP: Setting up the symmetry group for a
 base centered monoclinic supercell.

 Subroutine GETGRP returns: Found  1 space group operations
 (whereof  1 operations were pure point group operations)
 out of a pool of  4 trial point group operations.

The static configuration has the point symmetry C_1 .

Analysis of symmetry for dynamics (positions and initial velocities):
 Subroutine PRICEL returns:
 Original cell was already a primitive cell.

 Routine SETGRP: Setting up the symmetry group for a
 base centered monoclinic supercell.

 Subroutine GETGRP returns: Found  1 space group operations
 (whereof  1 operations were pure point group operations)
 out of a pool of  4 trial point group operations.

The dynamic configuration has the point symmetry C_1 .

 Subroutine INISYM returns: Found  1 space group operations
 (whereof  1 operations are pure point group operations),
 and found     1 'primitive' translations

                                     Primitive cell

  volume of cell :      82.4906

  direct lattice vectors                    reciprocal lattice vectors
     3.066644420 -0.000381340 -0.553736810     0.326092507  0.010668534  0.000010291
    -0.100258030  3.065003170 -0.553736260     0.000042426  0.326267180  0.000010271
    -0.000267930 -0.000276250  8.776406220     0.020577092  0.021258534  0.113943152

  length of vectors
     3.116236929  3.116234900  8.776406228     0.326266978  0.326267183  0.117721637

  position of ions in fractional coordinates (direct lattice)
     0.469536590  0.719552420  0.439329810
     0.219559500  0.969542970  0.939344290
     0.530459770  0.280443250  0.560661210
     0.780446720  0.030462570  0.060668470
     0.321705480  0.571768680  0.143668570
     0.071764370  0.821701830  0.643660600
     0.678310430  0.428247930  0.856363910
     0.928217160  0.178280360  0.356303150

  ion indices of the primitive-cell ions
   primitive index   ion index
                 1           1
                 2           2
                 3           3
                 4           4
                 5           5
                 6           6
                 7           7
                 8           8

 KPOINTS: EA

Automatic generation of k-mesh.
 Grid dimensions read from file:
 generate k-points for:   11   11    4

 Generating k-lattice:

  Cartesian coordinates                     Fractional coordinates (reciprocal lattice)
     0.029644773  0.000969867  0.000000936     0.090909091  0.000000000  0.000000000
     0.000003857  0.029660653  0.000000934    -0.000000000  0.090909091 -0.000000000
     0.005144273  0.005314633  0.028485788     0.000000000  0.000000000  0.250000000

  Length of vectors
     0.029660634  0.029660653  0.029430409

  Shift w.r.t. Gamma in fractional coordinates (k-lattice)
     0.000000000  0.000000000  0.000000000

 Subroutine IBZKPT returns following result:

 Found    243 irreducible k-points:

 Following reciprocal coordinates:
            Coordinates               Weight
  0.000000  0.000000  0.000000      1.000000
  0.090909  0.000000  0.000000      2.000000
  0.000000 -0.090909  0.000000      2.000000
  0.181818  0.000000  0.000000      2.000000
  0.000000 -0.181818 -0.000000      2.000000
  0.272727 -0.000000  0.000000      2.000000
  0.000000 -0.272727 -0.000000      2.000000
  0.363636  0.000000  0.000000      2.000000
  0.000000 -0.363636  0.000000      2.000000
  0.454545 -0.000000  0.000000      2.000000
  0.000000 -0.454545 -0.000000      2.000000
  0.090909  0.090909  0.000000      2.000000
  0.181818  0.090909  0.000000      2.000000
 -0.090909 -0.181818 -0.000000      2.000000
  0.272727  0.090909  0.000000      2.000000
 -0.090909 -0.272727 -0.000000      2.000000
  0.363636  0.090909  0.000000      2.000000
 -0.090909 -0.363636 -0.000000      2.000000
  0.454545  0.090909  0.000000      2.000000
 -0.090909 -0.454545 -0.000000      2.000000
 -0.454545  0.090909 -0.000000      2.000000
 -0.090909  0.454545  0.000000      2.000000
 -0.363636  0.090909 -0.000000      2.000000
 -0.090909  0.363636 -0.000000      2.000000
 -0.272727  0.090909 -0.000000      2.000000
 -0.090909  0.272727  0.000000      2.000000
 -0.181818  0.090909 -0.000000      2.000000
 -0.090909  0.181818  0.000000      2.000000
 -0.090909  0.090909  0.000000      2.000000
  0.181818  0.181818  0.000000      2.000000
  0.272727  0.181818  0.000000      2.000000
 -0.181818 -0.272727 -0.000000      2.000000
  0.363636  0.181818  0.000000      2.000000
 -0.181818 -0.363636 -0.000000      2.000000
  0.454545  0.181818  0.000000      2.000000
 -0.181818 -0.454545 -0.000000      2.000000
 -0.454545  0.181818 -0.000000      2.000000
 -0.181818  0.454545  0.000000      2.000000
 -0.363636  0.181818 -0.000000      2.000000
 -0.181818  0.363636  0.000000      2.000000
 -0.272727  0.181818 -0.000000      2.000000
 -0.181818  0.272727  0.000000      2.000000
 -0.181818  0.181818  0.000000      2.000000
  0.272727  0.272727  0.000000      2.000000
  0.363636  0.272727  0.000000      2.000000
 -0.272727 -0.363636 -0.000000      2.000000
  0.454545  0.272727  0.000000      2.000000
 -0.272727 -0.454545 -0.000000      2.000000
 -0.454545  0.272727 -0.000000      2.000000
 -0.272727  0.454545  0.000000      2.000000
 -0.363636  0.272727 -0.000000      2.000000
 -0.272727  0.363636  0.000000      2.000000
 -0.272727  0.272727  0.000000      2.000000
  0.363636  0.363636  0.000000      2.000000
  0.454545  0.363636  0.000000      2.000000
 -0.363636 -0.454545 -0.000000      2.000000
 -0.454545  0.363636 -0.000000      2.000000
 -0.363636  0.454545  0.000000      2.000000
 -0.363636  0.363636 -0.000000      2.000000
  0.454545  0.454545  0.000000      2.000000
[...]
  0.454545  0.272727  0.500000      2.000000
 -0.272727 -0.454545  0.500000      2.000000
 -0.454545  0.272727  0.500000      2.000000
 -0.272727  0.454545  0.500000      2.000000
 -0.363636  0.272727  0.500000      2.000000
 -0.272727  0.363636  0.500000      2.000000
 -0.272727  0.272727  0.500000      2.000000
  0.363636  0.363636  0.500000      2.000000
  0.454545  0.363636  0.500000      2.000000
 -0.363636 -0.454545  0.500000      2.000000
 -0.454545  0.363636  0.500000      2.000000
 -0.363636  0.454545  0.500000      2.000000
 -0.363636  0.363636  0.500000      2.000000
  0.454545  0.454545  0.500000      2.000000
 -0.454545  0.454545  0.500000      2.000000

 Following cartesian coordinates:
            Coordinates               Weight
  0.000000  0.000000  0.000000      1.000000
  0.029645  0.000970  0.000001      2.000000
 -0.000004 -0.029661 -0.000001      2.000000
  0.059290  0.001940  0.000002      2.000000
 -0.000008 -0.059321 -0.000002      2.000000
  0.088934  0.002910  0.000003      2.000000
 -0.000012 -0.088982 -0.000003      2.000000
  0.118579  0.003879  0.000004      2.000000
 -0.000015 -0.118643 -0.000004      2.000000
  0.148224  0.004849  0.000005      2.000000
 -0.000019 -0.148303 -0.000005      2.000000
  0.029649  0.030631  0.000002      2.000000
  0.059293  0.031600  0.000003      2.000000
[...]
   0.15852784  0.13412121  0.05697999       0.004
  -0.10830983 -0.14155346  0.05696317       0.004
  -0.13791989  0.12442254  0.05697063       0.004
  -0.10827126  0.15505306  0.05697250       0.004
  -0.10827512  0.12539241  0.05697157       0.004
   0.15853170  0.16378186  0.05698092       0.004
  -0.13791604  0.15408320  0.05697157       0.004

 k-points in reciprocal lattice and weights: EA
   0.00000000  0.00000000  0.00000000       0.002
   0.09090909  0.00000000  0.00000000       0.004
   0.00000000 -0.09090909  0.00000000       0.004
   0.18181818  0.00000000  0.00000000       0.004
   0.00000000 -0.18181818 -0.00000000       0.004
   0.27272727 -0.00000000  0.00000000       0.004
   0.00000000 -0.27272727 -0.00000000       0.004
   0.36363636  0.00000000  0.00000000       0.004
   0.00000000 -0.36363636  0.00000000       0.004
   0.45454545 -0.00000000  0.00000000       0.004
   0.00000000 -0.45454545 -0.00000000       0.004
   0.09090909  0.09090909  0.00000000       0.004
   0.18181818  0.09090909  0.00000000       0.004
  -0.09090909 -0.18181818 -0.00000000       0.004
   0.27272727  0.09090909  0.00000000       0.004
  -0.09090909 -0.27272727 -0.00000000       0.004
   0.36363636  0.09090909  0.00000000       0.004
  -0.09090909 -0.36363636 -0.00000000       0.004
   0.45454545  0.09090909  0.00000000       0.004
  -0.09090909 -0.45454545 -0.00000000       0.004
  -0.45454545  0.09090909 -0.00000000       0.004
  -0.09090909  0.45454545  0.00000000       0.004
  -0.36363636  0.09090909 -0.00000000       0.004
  -0.09090909  0.36363636 -0.00000000       0.004
  -0.27272727  0.09090909 -0.00000000       0.004
  -0.09090909  0.27272727  0.00000000       0.004
  -0.18181818  0.09090909 -0.00000000       0.004
  -0.09090909  0.18181818  0.00000000       0.004
  -0.09090909  0.09090909  0.00000000       0.004
   0.18181818  0.18181818  0.00000000       0.004
   0.27272727  0.18181818  0.00000000       0.004
  -0.18181818 -0.27272727 -0.00000000       0.004
   0.36363636  0.18181818  0.00000000       0.004
  -0.18181818 -0.36363636 -0.00000000       0.004
   0.45454545  0.18181818  0.00000000       0.004
  -0.18181818 -0.45454545 -0.00000000       0.004
  -0.45454545  0.18181818 -0.00000000       0.004
  -0.18181818  0.45454545  0.00000000       0.004
  -0.36363636  0.18181818 -0.00000000       0.004
  -0.18181818  0.36363636  0.00000000       0.004
  -0.27272727  0.18181818 -0.00000000       0.004
  -0.18181818  0.27272727  0.00000000       0.004
  -0.18181818  0.18181818  0.00000000       0.004
   0.27272727  0.27272727  0.00000000       0.004
   0.36363636  0.27272727  0.00000000       0.004
  -0.27272727 -0.36363636 -0.00000000       0.004
   0.45454545  0.27272727  0.00000000       0.004
  -0.27272727 -0.45454545 -0.00000000       0.004
  -0.45454545  0.27272727 -0.00000000       0.004
  -0.27272727  0.45454545  0.00000000       0.004
  -0.36363636  0.27272727 -0.00000000       0.004
  -0.27272727  0.36363636  0.00000000       0.004
  -0.27272727  0.27272727  0.00000000       0.004
   0.36363636  0.36363636  0.00000000       0.004
   0.45454545  0.36363636  0.00000000       0.004
  -0.36363636 -0.45454545 -0.00000000       0.004
  -0.45454545  0.36363636 -0.00000000       0.004
  -0.36363636  0.45454545  0.00000000       0.004
  -0.36363636  0.36363636 -0.00000000       0.004
   0.45454545  0.45454545  0.00000000       0.004
[...]
   0.45454545  0.27272727  0.50000000       0.004
  -0.27272727 -0.45454545  0.50000000       0.004
  -0.45454545  0.27272727  0.50000000       0.004
  -0.27272727  0.45454545  0.50000000       0.004
  -0.36363636  0.27272727  0.50000000       0.004
  -0.27272727  0.36363636  0.50000000       0.004
  -0.27272727  0.27272727  0.50000000       0.004
   0.36363636  0.36363636  0.50000000       0.004
   0.45454545  0.36363636  0.50000000       0.004
  -0.36363636 -0.45454545  0.50000000       0.004
  -0.45454545  0.36363636  0.50000000       0.004
  -0.36363636  0.45454545  0.50000000       0.004
  -0.36363636  0.36363636  0.50000000       0.004
   0.45454545  0.45454545  0.50000000       0.004
  -0.45454545  0.45454545  0.50000000       0.004

 position of ions in fractional coordinates (direct lattice)
   0.46953659  0.71955242  0.43932981
   0.21955950  0.96954297  0.93934429
   0.53045977  0.28044325  0.56066121
   0.78044672  0.03046257  0.06066847
   0.32170548  0.57176868  0.14366857
   0.07176437  0.82170183  0.64366060
   0.67831043  0.42824793  0.85636391
   0.92821716  0.17828036  0.35630315

 position of ions in cartesian coordinates  (Angst):
   1.36764315  2.20513003  3.19729492
   0.57585477  2.97130906  7.58561779
   1.59846459  0.85920228  4.47156383
   2.39028221  0.09305350  0.08342083
   0.92919342  1.75231045  0.76614451
   0.13752114  2.51831354  5.15428222
   2.03697216  1.31208603  6.90305569
   2.82854247  0.54597747  2.51435287

 k-point   1 :   0.0000 0.0000 0.0000  plane waves:    2765
 k-point   2 :   0.0909 0.0000 0.0000  plane waves:    2759
 k-point   3 :   0.0000-0.0909 0.0000  plane waves:    2759
 k-point   4 :   0.1818 0.0000 0.0000  plane waves:    2752
 k-point   5 :   0.0000-0.1818-0.0000  plane waves:    2752
 k-point   6 :   0.2727-0.0000 0.0000  plane waves:    2746
 k-point   7 :   0.0000-0.2727-0.0000  plane waves:    2746
 k-point   8 :   0.3636 0.0000 0.0000  plane waves:    2760
 k-point   9 :   0.0000-0.3636 0.0000  plane waves:    2760
 k-point  10 :   0.4545-0.0000 0.0000  plane waves:    2758
 k-point  11 :   0.0000-0.4545-0.0000  plane waves:    2758
 k-point  12 :   0.0909 0.0909 0.0000  plane waves:    2766
 k-point  13 :   0.1818 0.0909 0.0000  plane waves:    2759
 k-point  14 :  -0.0909-0.1818-0.0000  plane waves:    2759
 k-point  15 :   0.2727 0.0909 0.0000  plane waves:    2759
 k-point  16 :  -0.0909-0.2727-0.0000  plane waves:    2759
 k-point  17 :   0.3636 0.0909 0.0000  plane waves:    2755
 k-point  18 :  -0.0909-0.3636-0.0000  plane waves:    2755
 k-point  19 :   0.4545 0.0909 0.0000  plane waves:    2754
 k-point  20 :  -0.0909-0.4545-0.0000  plane waves:    2754
 k-point  21 :  -0.4545 0.0909-0.0000  plane waves:    2757
 k-point  22 :  -0.0909 0.4545 0.0000  plane waves:    2757
 k-point  23 :  -0.3636 0.0909-0.0000  plane waves:    2760
 k-point  24 :  -0.0909 0.3636-0.0000  plane waves:    2760
 k-point  25 :  -0.2727 0.0909-0.0000  plane waves:    2759
 k-point  26 :  -0.0909 0.2727 0.0000  plane waves:    2759
 k-point  27 :  -0.1818 0.0909-0.0000  plane waves:    2754
 k-point  28 :  -0.0909 0.1818 0.0000  plane waves:    2754
 k-point  29 :  -0.0909 0.0909 0.0000  plane waves:    2759
 k-point  30 :   0.1818 0.1818 0.0000  plane waves:    2751
 k-point  31 :   0.2727 0.1818 0.0000  plane waves:    2746
 k-point  32 :  -0.1818-0.2727-0.0000  plane waves:    2746
 k-point  33 :   0.3636 0.1818 0.0000  plane waves:    2750
 k-point  34 :  -0.1818-0.3636-0.0000  plane waves:    2750
 k-point  35 :   0.4545 0.1818 0.0000  plane waves:    2752
 k-point  36 :  -0.1818-0.4545-0.0000  plane waves:    2752
 k-point  37 :  -0.4545 0.1818-0.0000  plane waves:    2750
 k-point  38 :  -0.1818 0.4545 0.0000  plane waves:    2750
 k-point  39 :  -0.3636 0.1818-0.0000  plane waves:    2748
 k-point  40 :  -0.1818 0.3636 0.0000  plane waves:    2748
 k-point  41 :  -0.2727 0.1818-0.0000  plane waves:    2746
 k-point  42 :  -0.1818 0.2727 0.0000  plane waves:    2746
 k-point  43 :  -0.1818 0.1818 0.0000  plane waves:    2761
 k-point  44 :   0.2727 0.2727 0.0000  plane waves:    2756
 k-point  45 :   0.3636 0.2727 0.0000  plane waves:    2753
 k-point  46 :  -0.2727-0.3636-0.0000  plane waves:    2753
 k-point  47 :   0.4545 0.2727 0.0000  plane waves:    2748
 k-point  48 :  -0.2727-0.4545-0.0000  plane waves:    2748
 k-point  49 :  -0.4545 0.2727-0.0000  plane waves:    2750
 k-point  50 :  -0.2727 0.4545 0.0000  plane waves:    2750
 k-point  51 :  -0.3636 0.2727-0.0000  plane waves:    2751
 k-point  52 :  -0.2727 0.3636 0.0000  plane waves:    2751
 k-point  53 :  -0.2727 0.2727 0.0000  plane waves:    2759
 k-point  54 :   0.3636 0.3636 0.0000  plane waves:    2758
 k-point  55 :   0.4545 0.3636 0.0000  plane waves:    2751
 k-point  56 :  -0.3636-0.4545-0.0000  plane waves:    2751
 k-point  57 :  -0.4545 0.3636-0.0000  plane waves:    2760
 k-point  58 :  -0.3636 0.4545 0.0000  plane waves:    2760
 k-point  59 :  -0.3636 0.3636-0.0000  plane waves:    2759
 k-point  60 :   0.4545 0.4545 0.0000  plane waves:    2761
[...]
 k-point 229 :   0.4545 0.2727 0.5000  plane waves:    2749
 k-point 230 :  -0.2727-0.4545 0.5000  plane waves:    2749
 k-point 231 :  -0.4545 0.2727 0.5000  plane waves:    2744
 k-point 232 :  -0.2727 0.4545 0.5000  plane waves:    2744
 k-point 233 :  -0.3636 0.2727 0.5000  plane waves:    2741
 k-point 234 :  -0.2727 0.3636 0.5000  plane waves:    2741
 k-point 235 :  -0.2727 0.2727 0.5000  plane waves:    2742
 k-point 236 :   0.3636 0.3636 0.5000  plane waves:    2750
 k-point 237 :   0.4545 0.3636 0.5000  plane waves:    2761
 k-point 238 :  -0.3636-0.4545 0.5000  plane waves:    2761
 k-point 239 :  -0.4545 0.3636 0.5000  plane waves:    2752
 k-point 240 :  -0.3636 0.4545 0.5000  plane waves:    2752
 k-point 241 :  -0.3636 0.3636 0.5000  plane waves:    2746
 k-point 242 :   0.4545 0.4545 0.5000  plane waves:    2754
 k-point 243 :  -0.4545 0.4545 0.5000  plane waves:    2760

 maximum and minimum number of plane-waves per node :      1396     1358

 maximum number of plane-waves:      2772
 maximum index in each direction:
   IXMAX=    6   IYMAX=    6   IZMAX=   17
   IXMIN=   -6   IYMIN=   -6   IZMIN=  -18

 parallel 3D FFT for wavefunctions:
    minimum data exchange during FFTs selected (reduces bandwidth)
 parallel 3D FFT for charge:
    minimum data exchange during FFTs selected (reduces bandwidth)

 Broyden mixing: mesh for mixing (old mesh)
   NGX = 13   NGY = 13   NGZ = 35
  (NGX  = 56   NGY  = 56   NGZ  =140)
  gives a total of   5915 points

 initial charge density was supplied:
 charge density of overlapping atoms calculated
 number of electron      68.0000000 magnetization
 keeping initial charge density in first step

 Maximum index for augmentation-charges        21803 (set IRDMAX)

 First call to EWALD:  gamma=   0.407
 Maximum number of real-space cells 4x 4x 2
 Maximum number of reciprocal cells 2x 2x 5

--------------------------------------- Iteration      1(   1)  ---------------------------------------

 eigenvalue-minimisations  : 20412
 total energy-change (2. order) : 0.7015886E+03  (-0.4734569E+04)
 number of electron      68.0000000 magnetization
 augmentation part       68.0000000 magnetization

 Free energy of the ion-electron system (eV)
  alpha Z        PSCENC =       509.65408253
  Ewald energy   TEWEN  =     -6843.75675332
  -Hartree energ DENC   =     -1285.94222237
  -exchange      EXHF   =         0.00000000
  -V(xc)+E(xc)   XCENC  =       343.58115105
  PAW double counting   =      6111.62835843    -6100.11823605
  entropy T*S    EENTRO =        -0.00044589
  eigenvalues    EBANDS =       232.73420880
  atomic energy  EATOM  =      7733.80848608
  free energy    TOTEN  =       701.58862927 eV

  energy without entropy =      701.58907515  energy(sigma->0) =      701.58885221

[...]

 eigenvalue-minimisations  : 22002
 total energy-change (2. order) :-0.8359905E+03  (-0.8169393E+03)
 number of electron      68.0000000 magnetization
 augmentation part       68.0000000 magnetization

[...]

 eigenvalue-minimisations  :     0
 total energy-change (2. order) :-0.6700247E-08  ( 0.1744800E-06)
 number of electron      68.0000000 magnetization
 augmentation part        9.7572307 magnetization

[...]

 eigenvalue-minimisations  :     0
 total energy-change (2. order) :-0.1036915E-07  (-0.9063435E-09)
 number of electron      68.0000000 magnetization
 augmentation part        9.7572332 magnetization

[...]

--------------------------------------- Iteration      1(  35)  ---------------------------------------

 eigenvalue-minimisations  :     0
 total energy-change (2. order) : 0.2610250E-09  (-0.1424088E-09)
 number of electron      68.0000000 magnetization
 augmentation part        9.7572327 magnetization

 Free energy of the ion-electron system (eV)
  alpha Z        PSCENC =       509.65408253
  Ewald energy   TEWEN  =     -6843.75675332
  -Hartree energ DENC   =     -1165.96551118
  -exchange      EXHF   =         0.00000000
  -V(xc)+E(xc)   XCENC  =       348.90201785
  PAW double counting   =      8168.88784815    -8172.32742237
  entropy T*S    EENTRO =        -0.00074415
  eigenvalues    EBANDS =      -717.03935237
  atomic energy  EATOM  =      7733.80848608
  free energy    TOTEN  =      -137.83734878 eV

  energy without entropy =     -137.83660463  energy(sigma->0) =     -137.83697670

  average scaling for gradient   1.0826

 average (electrostatic) potential at core
  the test charge radii are     0.7672  1.0818
  (the norm of the test charge is              1.0000)
       1 -21.8330       2 -21.8327       3 -21.8329       4 -21.8329       5 -74.6281
       6 -74.6277       7 -74.6277       8 -74.6280

 E-fermi :  12.6805     XC(G=0): -14.7243     alpha+bet :-20.5324

 Fermi energy:        12.6804973097

 k-point     1 :       0.0000    0.0000    0.0000
  band No.  band energies     occupation
      1     -50.8278      2.00000
      2     -50.7594      2.00000
      3     -50.6745      2.00000
      4     -50.6047      2.00000
      5     -24.6294      2.00000
      6     -24.1951      2.00000
      7     -24.1787      2.00000
      8     -24.1556      2.00000
      9     -24.1546      2.00000
     10     -24.1449      2.00000
     11     -24.1442      2.00000
     12     -23.8405      2.00000
     13     -23.8392      2.00000
     14     -23.7928      2.00000
     15     -23.7916      2.00000
     16     -23.7097      2.00000
     17      -0.9624      2.00000
     18       0.0142      2.00000
     19       3.5882      2.00000
     20       4.0154      2.00000
     21       7.3277      2.00000
     22       7.4143      2.00000
     23       7.4482      2.00000
     24       8.1339      2.00000
     25       8.1350      2.00000
     26       8.3226      2.00000
     27       8.3238      2.00000
     28       9.2532      2.00000
     29       9.4929      2.00000
     30       9.8532      2.00000
     31      11.7749      2.00000
     32      11.7770      2.00000
     33      11.9082      2.00000
     34      12.4955      2.00000
     35      12.8668      0.00000
     36      12.8675      0.00000
     37      13.0567      0.00000
     38      13.2960      0.00000
     39      13.4290      0.00000
     40      14.2322      0.00000
     41      15.2837      0.00000
     42      15.2870      0.00000

[...]

 k-point   243 :      -0.4545    0.4545    0.5000
  band No.  band energies     occupation
      1     -50.6667      2.00000
      2     -50.6665      2.00000
      3     -50.6564      2.00000
      4     -50.6563      2.00000
      5     -24.5422      2.00000
      6     -24.5416      2.00000
      7     -24.5343      2.00000
      8     -24.5338      2.00000
      9     -24.2531      2.00000
     10     -24.2529      2.00000
     11     -24.1023      2.00000
     12     -24.1022      2.00000
     13     -24.0040      2.00000
     14     -24.0039      2.00000
     15     -23.8861      2.00000
     16     -23.8860      2.00000
     17       2.1626      2.00000
     18       2.1634      2.00000
     19       2.7335      2.00000
     20       2.7345      2.00000
     21       6.5998      2.00000
     22       6.6000      2.00000
     23       6.6075      2.00000
     24       6.6079      2.00000
     25       7.7635      2.00000
     26       7.7636      2.00000
     27       7.8732      2.00000
     28       7.8735      2.00000
     29       9.8044      2.00000
     30       9.8051      2.00000
     31      10.1307      2.00000
     32      10.1315      2.00000
     33      14.4586      0.00000
     34      14.4588      0.00000
     35      14.6386      0.00000
     36      14.6388      0.00000
     37      14.8459      0.00000
     38      14.8462      0.00000
     39      14.9940      0.00000
     40      14.9941      0.00000
     41      17.3147      0.00000
     42      17.3519      0.00000

 soft charge-density along one line, spin component           1
         0         1         2         3         4         5         6         7         8         9
 total charge-density along one line

------------------------ aborting loop because EDIFF is reached ----------------------------------------

  FREE ENERGIE OF THE ION-ELECTRON SYSTEM (eV)
  free  energy   TOTEN  =      -137.83734878 eV

  energy  without entropy=     -137.83660463  energy(sigma->0) =     -137.83697670

 writing wavefunctions