 vasp.6.2.0 18Jan21 (build Jan 05 2022 15:41:44) complex

 executed on             LinuxIFC date 2025.05.07  18:13:57

 INCAR:
   SYSTEM = routine with relax: pwdword
   ICHARG = 2
   NPAR = 6
   KPAR = 2
   NCORE = 2
   ADDGRID = T
   PREC = Acc
   ENCUT = 600
   METAGGA = R2SCAN
   LASPH = .TRUE.
   LMIXTAU = .FALSE.
   ALGO = A
   EDIFF = 1E-9
   NELM = 100
   NELMIN = 6
   IALGO = 38
   LREAL = F
   NSW = 0
   ISIF = -1
   ISMEAR = 0
   SIGMA = 0.02

 POTCAR:    PAW_PBE B 06Sep2000
 POTCAR:    PAW_PBE Mo_sv 02Feb2006
 POTCAR:    PAW_PBE Si 05Jan2001
|           W    W    AA    RRRRR   N    N  II  N    N   GGGG   !!!           |
|           W    W   A  A   R    R  NN   N  II  NN   N  G    G  !!!           |
|           W    W  A    A  R    R  N N  N  II  N N  N  G       !!!           |
|           W WW W  AAAAAA  RRRRR   N  N N  II  N  N N  G  GGG   !            |
|           WW  WW  A    A  R   R   N   NN  II  N   NN  G    G                |
|           W    W  A    A  R    R  N    N  II  N    N   GGGG   !!!           |
|     For optimal performance we recommend to set                             |
|       NCORE = 2 up to number-of-cores-per-socket                            |
|     This setting can greatly improve the performance of VASP for DFT.       |
|     The default, NCORE=1 might be grossly inefficient on modern             |
|     multi-core architectures or massively parallel machines. Do your        |
|     Unfortunately you need to use the default for GW and RPA                |
|     calculations (for HF NCORE is supported but not extensively tested      |
|     yet).                                                                   |

 POTCAR:    PAW_PBE B 06Sep2000
   VRHFIN =B: s2p1

   TITEL  = PAW_PBE B 06Sep2000
   POMASS =   10.811; ZVAL   =    3.000    mass and valenz
   ENMAX  =  318.614; ENMIN  =  238.960 eV

 POTCAR:    PAW_PBE Mo_sv 02Feb2006
   VRHFIN =Mo: 4p5s4d

   TITEL  = PAW_PBE Mo_sv 02Feb2006
   POMASS =   95.940; ZVAL   =   14.000    mass and valenz
   ENMAX  =  242.676; ENMIN  =  182.007 eV

 POTCAR:    PAW_PBE Si 05Jan2001
   VRHFIN =Si: s2p2

   TITEL  = PAW_PBE Si 05Jan2001
   POMASS =   28.085; ZVAL   =    4.000    mass and valenz
   ENMAX  =  245.345; ENMIN  =  184.009 eV

  PAW_PBE B 06Sep2000                   :
  PAW_PBE Mo_sv 02Feb2006               :
  PAW_PBE Si 05Jan2001                  :

 POSCAR: EA150
  positions in direct lattice

 METAGGA = R2SCA    LMAXTAU =  6    LMIXTAU =  F

 ion  position               nearest neighbor table
   1  0.000  0.500  0.000-   6 2.01   8 2.01   5 2.04   7 2.04  12 2.04  11 2.04
   2  0.500  0.500  0.500-   9 2.01  10 2.01  12 2.04  11 2.04   5 2.04   7 2.04
   3  0.500  0.000  0.000-   6 2.01   8 2.01   7 2.04   5 2.04  12 2.04  11 2.04
   4  0.000  0.000  0.500-   9 2.01  10 2.01  11 2.04  12 2.04   5 2.04   7 2.04
   5  0.250  0.750  0.500-   3 2.04   1 2.04   4 2.04   2 2.04   6 2.79   8 2.79  10 2.79   9 2.79
                            12 2.88  11 2.88  11 2.88  12 2.88   8 2.93   9 2.93  10 2.93   6 2.93
   6  0.238  0.738  0.976-   3 2.01   1 2.01   5 2.79   7 2.79  12 2.86  11 2.86  11 2.86  12 2.86
                             9 2.88  10 2.88   9 2.88  10 2.88   7 2.93   5 2.93
   7  0.750  0.250  0.500-   1 2.04   3 2.04   4 2.04   2 2.04   8 2.79   6 2.79  10 2.79   9 2.79
                            12 2.88  11 2.88  12 2.88  11 2.88   6 2.93   9 2.93  10 2.93   8 2.93
   8  0.762  0.262  0.024-   3 2.01   1 2.01   7 2.79   5 2.79  12 2.86  11 2.86  11 2.86  12 2.86
                            10 2.88   9 2.88  10 2.88   9 2.88   5 2.93   7 2.93
   9  0.738  0.762  0.500-   2 2.01   4 2.01   5 2.79   7 2.79  11 2.86  11 2.86  12 2.86  12 2.86
                             6 2.88   8 2.88   6 2.88   8 2.88   7 2.93   5 2.93
  10  0.262  0.238  0.500-   2 2.01   4 2.01   5 2.79   7 2.79  12 2.86  12 2.86  11 2.86  11 2.86
                             8 2.88   6 2.88   8 2.88   6 2.88   5 2.93   7 2.93
  11  0.250  0.250  0.000-   2 2.04   4 2.04   3 2.04   1 2.04   8 2.86   6 2.86   9 2.86   9 2.86
                            10 2.86  10 2.86   8 2.86   6 2.86   5 2.88   5 2.88   7 2.88   7 2.88
  12  0.750  0.750  0.000-   4 2.04   2 2.04   1 2.04   3 2.04   8 2.86   6 2.86  10 2.86  10 2.86
                             9 2.86   9 2.86   8 2.86   6 2.86   7 2.88   5 2.88   7 2.88   5 2.88

  LATTYP: Found a body centered tetragonal cell.
 ALAT       =     5.7632654562
 C/A-ratio  =     1.3953966896

  Lattice vectors:

 A1 = (   4.9799822235,   0.0000000000,  -2.8241970642)
 A2 = (  -1.6898022172,   4.6845268078,  -2.8241970642)
 A3 = (   0.0000000000,   0.0000000000,   5.7250600000)

Analysis of symmetry for initial positions (statically):
 Subroutine PRICEL returns:
 Original cell was already a primitive cell.

 Routine SETGRP: Setting up the symmetry group for a
 body centered tetragonal supercell.

 Subroutine GETGRP returns: Found  4 space group operations
 (whereof  2 operations were pure point group operations)
 out of a pool of 16 trial point group operations.

The static configuration has the point symmetry S_2 .
 The point group associated with its full space group is C_2h.

Analysis of symmetry for dynamics (positions and initial velocities):
 Subroutine PRICEL returns:
 Original cell was already a primitive cell.

 Routine SETGRP: Setting up the symmetry group for a
 body centered tetragonal supercell.

 Subroutine GETGRP returns: Found  4 space group operations
 (whereof  2 operations were pure point group operations)
 out of a pool of 16 trial point group operations.

The dynamic configuration has the point symmetry S_2 .
 The point group associated with its full space group is C_2h.

 Subroutine INISYM returns: Found  4 space group operations
 (whereof  2 operations are pure point group operations),
 and found     1 'primitive' translations

                                     Primitive cell

  volume of cell :     133.5591

  direct lattice vectors                    reciprocal lattice vectors
     4.979982223  0.000000000 -2.824197064     0.200803930  0.072433981  0.000000000
    -1.689802217  4.684526808 -2.824197064     0.000000000  0.213468732  0.000000000
     0.000000000  0.000000000  5.725060000     0.099057454  0.141037055  0.174670658

  length of vectors
     5.725060000  5.725060000  5.725060000     0.213468732  0.213468732  0.245384737

  position of ions in fractional coordinates (direct lattice)
     0.000000000  0.500000000  1.000000000
     0.500000000  0.500000000  0.500000000
     0.500000000  0.000000000  1.000000000
     0.000000000  0.000000000  0.500000000
     0.250000000  0.750000000  0.500000000
     0.238010000  0.738010000  0.976010000
     0.750000000  0.250000000  0.500000000
     0.761990000  0.261990000  0.023990000
     0.738010000  0.761990000  0.500000000
     0.261990000  0.238010000  0.500000000
     0.250000000  0.250000000  1.000000000
     0.750000000  0.750000000  1.000000000

  ion indices of the primitive-cell ions
   primitive index   ion index
                 1           1
                 2           2
                 3           3
                 4           4
                 5           5
                 6           6
                 7           7
                 8           8
                 9           9
                10          10
                11          11
                12          12

 KPOINTS: EA

Automatic generation of k-mesh.
 Grid dimensions read from file:
 generate k-points for:    8    8    9

 Generating k-lattice:

  Cartesian coordinates                     Fractional coordinates (reciprocal lattice)
     0.025100491  0.009054248  0.000000000     0.125000000  0.000000000  0.000000000
     0.000000000  0.026683592  0.000000000     0.000000000  0.125000000  0.000000000
     0.011006384  0.015670784  0.019407851    -0.000000000 -0.000000000  0.111111111

  Length of vectors
     0.026683592  0.026683592  0.027264971

  Shift w.r.t. Gamma in fractional coordinates (k-lattice)
     0.000000000  0.000000000  0.000000000

 WARNING: IBZKPT: internal override: KBLOWUP is changed to .FALSE.
      ... skipping the blow-up phase ...

 Subroutine IBZKPT returns following result:

 Found    165 irreducible k-points:

 Following reciprocal coordinates:
            Coordinates               Weight
  0.000000  0.000000  0.000000      1.000000
  0.125000  0.000000  0.000000      4.000000
  0.250000  0.000000  0.000000      4.000000
  0.375000  0.000000  0.000000      4.000000
  0.500000  0.000000  0.000000      2.000000
  0.125000  0.125000  0.000000      2.000000
  0.250000  0.125000  0.000000      4.000000
  0.375000  0.125000  0.000000      4.000000
  0.500000  0.125000  0.000000      4.000000
 -0.375000  0.125000  0.000000      4.000000
 -0.250000  0.125000  0.000000      4.000000
 -0.125000  0.125000  0.000000      2.000000
  0.250000  0.250000  0.000000      2.000000
  0.375000  0.250000  0.000000      4.000000
  0.500000  0.250000  0.000000      4.000000
 -0.375000  0.250000  0.000000      4.000000
 -0.250000  0.250000  0.000000      2.000000
  0.375000  0.375000  0.000000      2.000000
  0.500000  0.375000  0.000000      4.000000
 -0.375000  0.375000  0.000000      2.000000
  0.500000  0.500000  0.000000      1.000000
 -0.000000 -0.000000  0.111111      2.000000
  0.125000 -0.000000  0.111111      4.000000
  0.250000 -0.000000  0.111111      4.000000
  0.375000  0.000000  0.111111      4.000000
  0.500000  0.000000  0.111111      4.000000
 -0.375000 -0.000000  0.111111      4.000000
 -0.250000 -0.000000  0.111111      4.000000
 -0.125000 -0.000000  0.111111      4.000000
  0.125000  0.125000  0.111111      2.000000
  0.250000  0.125000  0.111111      4.000000
  0.375000  0.125000  0.111111      4.000000
  0.500000  0.125000  0.111111      4.000000
 -0.375000  0.125000  0.111111      4.000000
 -0.250000  0.125000  0.111111      4.000000
 -0.125000  0.125000  0.111111      4.000000
  0.250000  0.250000  0.111111      2.000000
  0.375000  0.250000  0.111111      4.000000
  0.500000  0.250000  0.111111      4.000000
 -0.375000  0.250000  0.111111      4.000000
 -0.250000  0.250000  0.111111      4.000000
 -0.125000  0.250000  0.111111      4.000000
  0.375000  0.375000  0.111111      2.000000
  0.500000  0.375000  0.111111      4.000000
 -0.375000  0.375000  0.111111      4.000000
 -0.250000  0.375000  0.111111      4.000000
 -0.125000  0.375000  0.111111      4.000000
  0.500000  0.500000  0.111111      2.000000
 -0.375000  0.500000  0.111111      4.000000
 -0.250000  0.500000  0.111111      4.000000
 -0.125000  0.500000  0.111111      4.000000
 -0.375000 -0.375000  0.111111      2.000000
 -0.250000 -0.375000  0.111111      4.000000
 -0.125000 -0.375000  0.111111      4.000000
 -0.250000 -0.250000  0.111111      2.000000
 -0.125000 -0.250000  0.111111      4.000000
 -0.125000 -0.125000  0.111111      2.000000
 -0.000000  0.000000  0.222222      2.000000
  0.125000  0.000000  0.222222      4.000000
  0.250000  0.000000  0.222222      4.000000
[...]
  0.375000  0.375000  0.444444      2.000000
  0.500000  0.375000  0.444444      4.000000
 -0.375000  0.375000  0.444444      4.000000
[...]
  -0.12500000  0.25000000  0.11111111       0.007
   0.37500000  0.37500000  0.11111111       0.003
   0.50000000  0.37500000  0.11111111       0.007
  -0.37500000  0.37500000  0.11111111       0.007
  -0.25000000  0.37500000  0.11111111       0.007
  -0.12500000  0.37500000  0.11111111       0.007
   0.50000000  0.50000000  0.11111111       0.003
  -0.37500000  0.50000000  0.11111111       0.007
  -0.25000000  0.50000000  0.11111111       0.007
  -0.12500000  0.50000000  0.11111111       0.007
  -0.37500000 -0.37500000  0.11111111       0.003
  -0.25000000 -0.37500000  0.11111111       0.007
  -0.12500000 -0.37500000  0.11111111       0.007
  -0.25000000 -0.25000000  0.11111111       0.003
  -0.12500000 -0.25000000  0.11111111       0.007
  -0.12500000 -0.12500000  0.11111111       0.003
  -0.00000000  0.00000000  0.22222222       0.003
   0.12500000  0.00000000  0.22222222       0.007
   0.25000000  0.00000000  0.22222222       0.007
[...]
   0.37500000  0.37500000  0.44444444       0.003
   0.50000000  0.37500000  0.44444444       0.007
  -0.37500000  0.37500000  0.44444444       0.007
  -0.25000000  0.37500000  0.44444444       0.007
  -0.12500000  0.37500000  0.44444444       0.007
   0.50000000  0.50000000  0.44444444       0.003
  -0.37500000  0.50000000  0.44444444       0.007
  -0.25000000  0.50000000  0.44444444       0.007
  -0.12500000  0.50000000  0.44444444       0.007
  -0.37500000 -0.37500000  0.44444444       0.003
  -0.25000000 -0.37500000  0.44444444       0.007
  -0.12500000 -0.37500000  0.44444444       0.007
  -0.25000000 -0.25000000  0.44444444       0.003
  -0.12500000 -0.25000000  0.44444444       0.007
  -0.12500000 -0.12500000  0.44444444       0.003

 position of ions in fractional coordinates (direct lattice)
   0.00000000  0.50000000  0.00000000
   0.50000000  0.50000000  0.50000000
   0.50000000  0.00000000  0.00000000
   0.00000000  0.00000000  0.50000000
   0.25000000  0.75000000  0.50000000
   0.23801000  0.73801000  0.97601000
   0.75000000  0.25000000  0.50000000
   0.76199000  0.26199000  0.02399000
   0.73801000  0.76199000  0.50000000
   0.26199000  0.23801000  0.50000000
   0.25000000  0.25000000  0.00000000
   0.75000000  0.75000000  0.00000000

 position of ions in cartesian coordinates  (Angst):
  -0.84490111  2.34226340 -1.41209853
   1.64509000  2.34226340  0.03833294
   2.48999111  0.00000000 -1.41209853
   0.00000000  0.00000000  2.86253000
  -0.02235611  3.51339511  0.03833294
  -0.06180537  3.45722763  2.83124299
   3.31253611  1.17113170  0.03833294
   3.35198537  1.22729918 -2.75457712
   2.38766429  3.56956258 -1.37376560
   0.90251572  1.11496423  1.45043147
   0.82254500  1.17113170 -1.41209853
   2.46763500  3.51339511 -4.23629560

 k-point   1 :   0.0000 0.0000 0.0000  plane waves:    4477
 k-point   2 :   0.1250 0.0000 0.0000  plane waves:    4477
 k-point   3 :   0.2500 0.0000 0.0000  plane waves:    4473
 k-point   4 :   0.3750 0.0000 0.0000  plane waves:    4465
 k-point   5 :   0.5000 0.0000 0.0000  plane waves:    4446
 k-point   6 :   0.1250 0.1250 0.0000  plane waves:    4472
 k-point   7 :   0.2500 0.1250 0.0000  plane waves:    4469
 k-point   8 :   0.3750 0.1250 0.0000  plane waves:    4461
 k-point   9 :   0.5000 0.1250 0.0000  plane waves:    4456
 k-point  10 :  -0.3750 0.1250 0.0000  plane waves:    4471
 k-point  11 :  -0.2500 0.1250 0.0000  plane waves:    4474
 k-point  12 :  -0.1250 0.1250 0.0000  plane waves:    4463
 k-point  13 :   0.2500 0.2500 0.0000  plane waves:    4452
 k-point  14 :   0.3750 0.2500 0.0000  plane waves:    4448
 k-point  15 :   0.5000 0.2500 0.0000  plane waves:    4450
 k-point  16 :  -0.3750 0.2500 0.0000  plane waves:    4472
 k-point  17 :  -0.2500 0.2500 0.0000  plane waves:    4488
 k-point  18 :   0.3750 0.3750 0.0000  plane waves:    4447
 k-point  19 :   0.5000 0.3750 0.0000  plane waves:    4448
 k-point  20 :  -0.3750 0.3750 0.0000  plane waves:    4448
 k-point  21 :   0.5000 0.5000 0.0000  plane waves:    4424
 k-point  22 :  -0.0000-0.0000 0.1111  plane waves:    4461
 k-point  23 :   0.1250-0.0000 0.1111  plane waves:    4468
 k-point  24 :   0.2500-0.0000 0.1111  plane waves:    4470
 k-point  25 :   0.3750 0.0000 0.1111  plane waves:    4457
 k-point  26 :   0.5000 0.0000 0.1111  plane waves:    4461
 k-point  27 :  -0.3750-0.0000 0.1111  plane waves:    4472
 k-point  28 :  -0.2500-0.0000 0.1111  plane waves:    4469
 k-point  29 :  -0.1250-0.0000 0.1111  plane waves:    4479
 k-point  30 :   0.1250 0.1250 0.1111  plane waves:    4470
 k-point  31 :   0.2500 0.1250 0.1111  plane waves:    4458
 k-point  32 :   0.3750 0.1250 0.1111  plane waves:    4445
 k-point  33 :   0.5000 0.1250 0.1111  plane waves:    4458
 k-point  34 :  -0.3750 0.1250 0.1111  plane waves:    4467
 k-point  35 :  -0.2500 0.1250 0.1111  plane waves:    4474
 k-point  36 :  -0.1250 0.1250 0.1111  plane waves:    4455
 k-point  37 :   0.2500 0.2500 0.1111  plane waves:    4464
 k-point  38 :   0.3750 0.2500 0.1111  plane waves:    4446
 k-point  39 :   0.5000 0.2500 0.1111  plane waves:    4449
 k-point  40 :  -0.3750 0.2500 0.1111  plane waves:    4473
 k-point  41 :  -0.2500 0.2500 0.1111  plane waves:    4472
 k-point  42 :  -0.1250 0.2500 0.1111  plane waves:    4467
 k-point  43 :   0.3750 0.3750 0.1111  plane waves:    4444
 k-point  44 :   0.5000 0.3750 0.1111  plane waves:    4450
 k-point  45 :  -0.3750 0.3750 0.1111  plane waves:    4453
 k-point  46 :  -0.2500 0.3750 0.1111  plane waves:    4457
 k-point  47 :  -0.1250 0.3750 0.1111  plane waves:    4451
 k-point  48 :   0.5000 0.5000 0.1111  plane waves:    4446
 k-point  49 :  -0.3750 0.5000 0.1111  plane waves:    4450
 k-point  50 :  -0.2500 0.5000 0.1111  plane waves:    4448
 k-point  51 :  -0.1250 0.5000 0.1111  plane waves:    4451
 k-point  52 :  -0.3750-0.3750 0.1111  plane waves:    4455
 k-point  53 :  -0.2500-0.3750 0.1111  plane waves:    4461
 k-point  54 :  -0.1250-0.3750 0.1111  plane waves:    4468
 k-point  55 :  -0.2500-0.2500 0.1111  plane waves:    4461
 k-point  56 :  -0.1250-0.2500 0.1111  plane waves:    4466
 k-point  57 :  -0.1250-0.1250 0.1111  plane waves:    4490
 k-point  58 :  -0.0000 0.0000 0.2222  plane waves:    4488
 k-point  59 :   0.1250 0.0000 0.2222  plane waves:    4467
 k-point  60 :   0.2500 0.0000 0.2222  plane waves:    4453
[...]
 k-point 151 :   0.3750 0.3750 0.4444  plane waves:    4463
 k-point 152 :   0.5000 0.3750 0.4444  plane waves:    4448
 k-point 153 :  -0.3750 0.3750 0.4444  plane waves:    4440
 k-point 154 :  -0.2500 0.3750 0.4444  plane waves:    4448
 k-point 155 :  -0.1250 0.3750 0.4444  plane waves:    4447
 k-point 156 :   0.5000 0.5000 0.4444  plane waves:    4442
 k-point 157 :  -0.3750 0.5000 0.4444  plane waves:    4450
 k-point 158 :  -0.2500 0.5000 0.4444  plane waves:    4460
 k-point 159 :  -0.1250 0.5000 0.4444  plane waves:    4455
 k-point 160 :  -0.3750-0.3750 0.4444  plane waves:    4460
 k-point 161 :  -0.2500-0.3750 0.4444  plane waves:    4470
 k-point 162 :  -0.1250-0.3750 0.4444  plane waves:    4464
 k-point 163 :  -0.2500-0.2500 0.4444  plane waves:    4463
 k-point 164 :  -0.1250-0.2500 0.4444  plane waves:    4471
 k-point 165 :  -0.1250-0.1250 0.4444  plane waves:    4469

 maximum and minimum number of plane-waves per node :      2250     2199

 maximum number of plane-waves:      4490
 maximum index in each direction:
   IXMAX=   11   IYMAX=   11   IZMAX=   11
   IXMIN=  -11   IYMIN=  -11   IZMIN=  -11

 parallel 3D FFT for wavefunctions:
    minimum data exchange during FFTs selected (reduces bandwidth)
 parallel 3D FFT for charge:
    minimum data exchange during FFTs selected (reduces bandwidth)

 Broyden mixing: mesh for mixing (old mesh)
   NGX = 23   NGY = 23   NGZ = 23
  (NGX  = 96   NGY  = 96   NGZ  = 96)
  gives a total of  12167 points

 initial charge density was supplied:
 charge density of overlapping atoms calculated
 number of electron     104.0000000 magnetization
 keeping initial charge density in first step

 Maximum index for augmentation-charges        23535 (set IRDMAX)

 First call to EWALD:  gamma=   0.347
 Maximum number of real-space cells 3x 3x 3
 Maximum number of reciprocal cells 3x 3x 3

--------------------------------------- Iteration      1(   1)  ---------------------------------------

 eigenvalue-minimisations  : 21888
 total energy-change (2. order) : 0.1128626E+04  (-0.7193932E+04)
 number of electron     104.0000000 magnetization
 augmentation part      104.0000000 magnetization

 Free energy of the ion-electron system (eV)
  alpha Z        PSCENC =       699.53442289
  Ewald energy   TEWEN  =    -10027.33930112
  -Hartree energ DENC   =     -2189.36563094
  -exchange      EXHF   =         0.00000000
  -V(xc)+E(xc)   XCENC  =       492.33739313
  PAW double counting   =      9250.47132855    -9210.50234729
  entropy T*S    EENTRO =        -0.00085951
  eigenvalues    EBANDS =       448.98460042
  atomic energy  EATOM  =     11664.50664672
  free energy    TOTEN  =      1128.62625286 eV

  energy without entropy =     1128.62711237  energy(sigma->0) =     1128.62668262

[...]

 eigenvalue-minimisations  : 23976
 total energy-change (2. order) :-0.1318451E+04  (-0.1288999E+04)
 number of electron     104.0000000 magnetization
 augmentation part      104.0000000 magnetization

[...]

 eigenvalue-minimisations  :     0
 total energy-change (2. order) :-0.1574517E-07  ( 0.2628314E-07)
 number of electron     104.0000001 magnetization
 augmentation part       14.3676544 magnetization

[...]

 eigenvalue-minimisations  :     0
 total energy-change (2. order) :-0.3070272E-07  ( 0.1594487E-07)
 number of electron     104.0000001 magnetization
 augmentation part       14.3676565 magnetization

[...]

 eigenvalue-minimisations  :     0
 total energy-change (2. order) : 0.1715307E-08  ( 0.3429125E-09)
 number of electron     104.0000001 magnetization
 augmentation part       14.3676558 magnetization

[...]

 eigenvalue-minimisations  :     0
 total energy-change (2. order) :-0.2562956E-08  (-0.6792707E-09)
 number of electron     104.0000001 magnetization
 augmentation part       14.3676558 magnetization

[...]

--------------------------------------- Iteration      1(  36)  ---------------------------------------

 eigenvalue-minimisations  :     0
 total energy-change (2. order) : 0.8803909E-09  (-0.2633656E-10)
 number of electron     104.0000001 magnetization
 augmentation part       14.3676557 magnetization

 Free energy of the ion-electron system (eV)
  alpha Z        PSCENC =       699.53442289
  Ewald energy   TEWEN  =    -10027.33930112
  -Hartree energ DENC   =     -2048.39729359
  -exchange      EXHF   =         0.00000000
  -V(xc)+E(xc)   XCENC  =       502.86743041
  PAW double counting   =     14609.45949609   -14592.07404341
  entropy T*S    EENTRO =        -0.00120758
  eigenvalues    EBANDS =     -1002.99883323
  atomic energy  EATOM  =     11664.50664672
  free energy    TOTEN  =      -194.44268282 eV

  energy without entropy =     -194.44147523  energy(sigma->0) =     -194.44207902

  average scaling for gradient   1.1825

 average (electrostatic) potential at core
  the test charge radii are     0.7672  1.0818  0.9892
  (the norm of the test charge is              1.0000)
       1 -20.8443       2 -20.8435       3 -20.8434       4 -20.8435       5 -73.8233
       6 -73.9344       7 -73.8233       8 -73.9344       9 -73.9326      10 -73.9326
      11 -80.8633      12 -80.8633

 E-fermi :  12.6788     XC(G=0): -14.4200     alpha+bet :-20.9518

 Fermi energy:        12.6788121019

 k-point     1 :       0.0000    0.0000    0.0000
  band No.  band energies     occupation
      1     -50.1871      2.00000
      2     -50.0443      2.00000
      3     -50.0425      2.00000
      4     -50.0157      2.00000
      5     -49.9771      2.00000
      6     -49.9384      2.00000
      7     -24.2220      2.00000
      8     -24.2212      2.00000
      9     -24.0735      2.00000
     10     -24.0632      2.00000
     11     -24.0627      2.00000
     12     -24.0439      2.00000
     13     -23.8665      2.00000
     14     -23.6416      2.00000
     15     -23.5310      2.00000
     16     -23.5303      2.00000
     17     -23.2768      2.00000
     18     -23.2760      2.00000
     19     -23.1676      2.00000
     20     -23.0856      2.00000
     21     -23.0844      2.00000
     22     -23.0495      2.00000
     23     -22.9267      2.00000
     24     -22.8574      2.00000
     25      -1.5114      2.00000
     26       0.4725      2.00000
     27       2.9389      2.00000
     28       4.6313      2.00000
     29       4.6317      2.00000
     30       5.5597      2.00000
     31       6.1609      2.00000
     32       6.1614      2.00000
     33       6.7462      2.00000
     34       6.7771      2.00000
     35       6.7775      2.00000
     36       6.9274      2.00000
     37       7.2144      2.00000
     38       8.2703      2.00000
     39       8.2708      2.00000
     40       8.4068      2.00000
     41       9.0711      2.00000
     42       9.3948      2.00000
     43       9.4688      2.00000
     44       9.4690      2.00000
     45      10.8134      2.00000
     46      10.8180      2.00000
     47      12.2532      2.00000
     48      12.2848      2.00000
     49      12.2860      2.00000
     50      12.3834      2.00000
     51      12.3835      2.00000
     52      13.0643      0.00000
     53      13.5474      0.00000
     54      14.2149      0.00000
     55      14.2935      0.00000
     56      14.5276      0.00000
     57      14.5578      0.00000
     58      14.5579      0.00000
     59      14.8258      0.00000
     60      14.9328      0.00000
     61      15.4014      0.00000
     62      15.4593      0.00000
     63      15.8667      0.00000
     64      15.8668      0.00000
     65      16.8643      0.00000
     66      17.8021      0.00000

[...]

 k-point   165 :      -0.1250   -0.1250    0.4444
  band No.  band energies     occupation
      1     -50.1378      2.00000
      2     -50.0615      2.00000
      3     -50.0430      2.00000
      4     -50.0184      2.00000
      5     -49.9961      2.00000
      6     -49.9501      2.00000
      7     -24.1940      2.00000
      8     -24.0502      2.00000
      9     -24.0030      2.00000
     10     -23.9830      2.00000
     11     -23.8634      2.00000
     12     -23.8123      2.00000
     13     -23.7042      2.00000
     14     -23.6661      2.00000
     15     -23.5646      2.00000
     16     -23.5246      2.00000
     17     -23.4860      2.00000
     18     -23.3372      2.00000
     19     -23.3175      2.00000
     20     -23.3042      2.00000
     21     -23.2132      2.00000
     22     -23.1770      2.00000
     23     -22.9725      2.00000
     24     -22.9031      2.00000
     25      -0.4333      2.00000
     26       0.7847      2.00000
     27       2.2573      2.00000
     28       2.6564      2.00000
     29       4.5061      2.00000
     30       5.6671      2.00000
     31       5.8919      2.00000
     32       6.2052      2.00000
     33       6.5134      2.00000
     34       7.4112      2.00000
     35       7.5974      2.00000
     36       8.0188      2.00000
     37       8.4729      2.00000
     38       8.4889      2.00000
     39       8.6434      2.00000
     40       8.8217      2.00000
     41       9.6410      2.00000
     42       9.7019      2.00000
     43       9.8441      2.00000
     44       9.9561      2.00000
     45      10.6443      2.00000
     46      10.7843      2.00000
     47      10.9378      2.00000
     48      11.6031      2.00000
     49      11.8033      2.00000
     50      12.2698      2.00000
     51      12.3567      2.00000
     52      12.5452      2.00000
     53      12.8265      0.00000
     54      12.8318      0.00000
     55      13.4385      0.00000
     56      13.6504      0.00000
     57      14.1901      0.00000
     58      14.3259      0.00000
     59      14.4296      0.00000
     60      14.7741      0.00000
     61      14.9526      0.00000
     62      15.2474      0.00000
     63      15.4891      0.00000
     64      15.9583      0.00000
     65      16.0601      0.00000
     66      16.5657      0.00000

 soft charge-density along one line, spin component           1
         0         1         2         3         4         5         6         7         8         9
 total charge-density along one line

------------------------ aborting loop because EDIFF is reached ----------------------------------------

  FREE ENERGIE OF THE ION-ELECTRON SYSTEM (eV)
  free  energy   TOTEN  =      -194.44268282 eV

  energy  without entropy=     -194.44147523  energy(sigma->0) =     -194.44207902

 writing wavefunctions