 vasp.6.2.0 18Jan21 (build Jan 05 2022 15:41:44) complex

 executed on             LinuxIFC date 2025.05.07  19:16:58

 INCAR:
   SYSTEM = routine with relax: pwdword
   ICHARG = 2
   NPAR = 6
   KPAR = 2
   NCORE = 2
   ADDGRID = T
   PREC = Acc
   ENCUT = 600
   METAGGA = R2SCAN
   LASPH = .TRUE.
   LMIXTAU = .FALSE.
   ALGO = A
   EDIFF = 1E-9
   NELM = 100
   NELMIN = 6
   IALGO = 38
   LREAL = F
   NSW = 0
   ISIF = -1
   ISMEAR = 0
   SIGMA = 0.02

 POTCAR:    PAW_PBE B 06Sep2000
 POTCAR:    PAW_PBE Mo_sv 02Feb2006
 POTCAR:    PAW_PBE Si 05Jan2001
|           W    W    AA    RRRRR   N    N  II  N    N   GGGG   !!!           |
|           W    W   A  A   R    R  NN   N  II  NN   N  G    G  !!!           |
|           W    W  A    A  R    R  N N  N  II  N N  N  G       !!!           |
|           W WW W  AAAAAA  RRRRR   N  N N  II  N  N N  G  GGG   !            |
|           WW  WW  A    A  R   R   N   NN  II  N   NN  G    G                |
|           W    W  A    A  R    R  N    N  II  N    N   GGGG   !!!           |
|     For optimal performance we recommend to set                             |
|       NCORE = 2 up to number-of-cores-per-socket                            |
|     This setting can greatly improve the performance of VASP for DFT.       |
|     The default, NCORE=1 might be grossly inefficient on modern             |
|     multi-core architectures or massively parallel machines. Do your        |
|     Unfortunately you need to use the default for GW and RPA                |
|     calculations (for HF NCORE is supported but not extensively tested      |
|     yet).                                                                   |

 POTCAR:    PAW_PBE B 06Sep2000
   VRHFIN =B: s2p1

   TITEL  = PAW_PBE B 06Sep2000
   POMASS =   10.811; ZVAL   =    3.000    mass and valenz
   ENMAX  =  318.614; ENMIN  =  238.960 eV

 POTCAR:    PAW_PBE Mo_sv 02Feb2006
   VRHFIN =Mo: 4p5s4d

   TITEL  = PAW_PBE Mo_sv 02Feb2006
   POMASS =   95.940; ZVAL   =   14.000    mass and valenz
   ENMAX  =  242.676; ENMIN  =  182.007 eV

 POTCAR:    PAW_PBE Si 05Jan2001
   VRHFIN =Si: s2p2

   TITEL  = PAW_PBE Si 05Jan2001
   POMASS =   28.085; ZVAL   =    4.000    mass and valenz
   ENMAX  =  245.345; ENMIN  =  184.009 eV

  PAW_PBE B 06Sep2000                   :
  PAW_PBE Mo_sv 02Feb2006               :
  PAW_PBE Si 05Jan2001                  :

 POSCAR: EA181
  positions in direct lattice

 METAGGA = R2SCA    LMAXTAU =  6    LMIXTAU =  F

 ion  position               nearest neighbor table
   1  0.500  0.500  0.000-   3 2.10   5 2.10   4 2.30   6 2.30   8 2.30   7 2.30
   2  0.000  0.000  0.000-   3 2.10   5 2.10   4 2.30   6 2.30   7 2.30   8 2.30
   3  0.250  0.250  0.000-   1 2.10   2 2.10   9 2.30  11 2.30  10 2.30  12 2.30   4 3.11   6 3.11
                             7 3.11   7 3.11   4 3.11   6 3.11   8 3.11   8 3.11
   4  0.742  0.242  0.984-  11 2.10   9 2.10   1 2.30   2 2.30   3 3.11   5 3.11   3 3.11   5 3.11
                             8 3.25   7 3.25   7 3.25   8 3.25
   5  0.750  0.750  0.000-   1 2.10   2 2.10   9 2.30  11 2.30  12 2.30  10 2.30   6 3.11   4 3.11
                             8 3.11   8 3.11   6 3.11   4 3.11   7 3.11   7 3.11
   6  0.258  0.758  0.016-  11 2.10   9 2.10   1 2.30   2 2.30   5 3.11   3 3.11   5 3.11   3 3.11
                             7 3.25   8 3.25   8 3.25   7 3.25
   7  0.242  0.258  0.500-  10 2.10  12 2.10   1 2.30   2 2.30   3 3.11   3 3.11   5 3.11   5 3.11
                             6 3.25   4 3.25   4 3.25   6 3.25
   8  0.758  0.742  0.500-  10 2.10  12 2.10   2 2.30   1 2.30   5 3.11   5 3.11   3 3.11   3 3.11
                             6 3.25   4 3.25   6 3.25   4 3.25
   9  0.000  0.500  0.000-   4 2.10   6 2.10   5 2.30   3 2.30
  10  0.500  0.500  0.500-   7 2.10   8 2.10   5 2.30   3 2.30
  11  0.500  0.000  0.000-   4 2.10   6 2.10   5 2.30   3 2.30
  12  0.000  0.000  0.500-   7 2.10   8 2.10   3 2.30   5 2.30

  LATTYP: Found a body centered tetragonal cell.
 ALAT       =     6.5042477275
 C/A-ratio  =     1.2891884388

  Lattice vectors:

 A1 = (   5.5455159199,   0.0000000000,  -2.8244843435)
 A2 = (  -2.0831917025,   5.1393636910,  -2.8244843435)
 A3 = (   0.0000000000,   0.0000000000,   6.2233800000)

Analysis of symmetry for initial positions (statically):
 Subroutine PRICEL returns:
 Original cell was already a primitive cell.

 Routine SETGRP: Setting up the symmetry group for a
 body centered tetragonal supercell.

 Subroutine GETGRP returns: Found 16 space group operations
 (whereof  8 operations were pure point group operations)
 out of a pool of 16 trial point group operations.

The static configuration has the point symmetry C_4h.
 The point group associated with its full space group is D_4h.

Analysis of symmetry for dynamics (positions and initial velocities):
 Subroutine PRICEL returns:
 Original cell was already a primitive cell.

 Routine SETGRP: Setting up the symmetry group for a
 body centered tetragonal supercell.

 Subroutine GETGRP returns: Found 16 space group operations
 (whereof  8 operations were pure point group operations)
 out of a pool of 16 trial point group operations.

The dynamic configuration has the point symmetry C_4h.
 The point group associated with its full space group is D_4h.

 Subroutine INISYM returns: Found 16 space group operations
 (whereof  8 operations are pure point group operations),
 and found     1 'primitive' translations

                                     Primitive cell

  volume of cell :     177.3690

  direct lattice vectors                    reciprocal lattice vectors
     5.545515920  0.000000000 -2.824484344     0.180325873  0.073093360  0.000000000
    -2.083191703  5.139363691 -2.824484344     0.000000000  0.194576617  0.000000000
     0.000000000  0.000000000  6.223380000     0.081840994  0.121482162  0.160684387

  length of vectors
     6.223380000  6.223380000  6.223380000     0.194576617  0.194576617  0.217428922

  position of ions in fractional coordinates (direct lattice)
     0.500000000  0.500000000  0.000000000
     0.000000000  0.000000000  0.000000000
     0.250000000  0.250000000  0.000000000
     0.742080000  0.242080000  0.984160000
     0.750000000  0.750000000  0.000000000
     0.257920000  0.757920000  0.015840000
     0.242080000  0.257920000  0.500000000
     0.757920000  0.742080000  0.500000000
     0.000000000  0.500000000  0.000000000
     0.500000000  0.500000000  0.500000000
     0.500000000  0.000000000  0.000000000
     0.000000000  0.000000000  0.500000000

  ion indices of the primitive-cell ions
   primitive index   ion index
                 1           1
                 2           2
                 3           3
                 4           4
                 5           5
                 6           6
                 7           7
                 8           8
                 9           9
                10          10
                11          11
                12          12

 KPOINTS: EA

Automatic generation of k-mesh.
 Grid dimensions read from file:
 generate k-points for:    7    7    8

 Generating k-lattice:

  Cartesian coordinates                     Fractional coordinates (reciprocal lattice)
     0.025760839  0.010441909  0.000000000     0.142857143 -0.000000000  0.000000000
     0.000000000  0.027796660  0.000000000     0.000000000  0.142857143  0.000000000
     0.010230124  0.015185270  0.020085548     0.000000000  0.000000000  0.125000000

  Length of vectors
     0.027796660  0.027796660  0.027178615

  Shift w.r.t. Gamma in fractional coordinates (k-lattice)
     0.000000000  0.000000000  0.000000000

 WARNING: IBZKPT: internal override: KBLOWUP is changed to .FALSE.
      ... skipping the blow-up phase ...

 Subroutine IBZKPT returns following result:

 Found    116 irreducible k-points:

 Following reciprocal coordinates:
            Coordinates               Weight
  0.000000  0.000000  0.000000      1.000000
  0.142857  0.000000  0.000000      4.000000
  0.285714  0.000000  0.000000      4.000000
  0.428571 -0.000000  0.000000      4.000000
  0.142857  0.142857  0.000000      2.000000
  0.285714  0.142857  0.000000      4.000000
  0.428571  0.142857  0.000000      4.000000
 -0.428571  0.142857  0.000000      4.000000
 -0.285714  0.142857  0.000000      4.000000
 -0.142857  0.142857  0.000000      2.000000
  0.285714  0.285714  0.000000      2.000000
  0.428571  0.285714  0.000000      4.000000
 -0.428571  0.285714  0.000000      4.000000
 -0.285714  0.285714  0.000000      2.000000
  0.428571  0.428571  0.000000      2.000000
 -0.428571  0.428571  0.000000      2.000000
 -0.000000  0.000000  0.125000      2.000000
  0.142857  0.000000  0.125000      4.000000
  0.285714  0.000000  0.125000      4.000000
  0.428571 -0.000000  0.125000      4.000000
 -0.428571  0.000000  0.125000      4.000000
 -0.285714  0.000000  0.125000      4.000000
 -0.142857  0.000000  0.125000      4.000000
  0.142857  0.142857  0.125000      2.000000
  0.285714  0.142857  0.125000      4.000000
  0.428571  0.142857  0.125000      4.000000
 -0.428571  0.142857  0.125000      4.000000
 -0.285714  0.142857  0.125000      4.000000
 -0.142857  0.142857  0.125000      4.000000
  0.285714  0.285714  0.125000      2.000000
  0.428571  0.285714  0.125000      4.000000
 -0.428571  0.285714  0.125000      4.000000
 -0.285714  0.285714  0.125000      4.000000
 -0.142857  0.285714  0.125000      4.000000
  0.428571  0.428571  0.125000      2.000000
 -0.428571  0.428571  0.125000      4.000000
 -0.285714  0.428571  0.125000      4.000000
 -0.142857  0.428571  0.125000      4.000000
 -0.428571 -0.428571  0.125000      2.000000
 -0.285714 -0.428571  0.125000      4.000000
 -0.142857 -0.428571  0.125000      4.000000
 -0.285714 -0.285714  0.125000      2.000000
 -0.142857 -0.285714  0.125000      4.000000
 -0.142857 -0.142857  0.125000      2.000000
 -0.000000  0.000000  0.250000      2.000000
  0.142857  0.000000  0.250000      4.000000
  0.285714  0.000000  0.250000      4.000000
  0.428571  0.000000  0.250000      4.000000
 -0.428571  0.000000  0.250000      4.000000
 -0.285714  0.000000  0.250000      4.000000
 -0.142857  0.000000  0.250000      4.000000
  0.142857  0.142857  0.250000      2.000000
  0.285714  0.142857  0.250000      4.000000
  0.428571  0.142857  0.250000      4.000000
 -0.428571  0.142857  0.250000      4.000000
 -0.285714  0.142857  0.250000      4.000000
 -0.142857  0.142857  0.250000      4.000000
  0.285714  0.285714  0.250000      2.000000
  0.428571  0.285714  0.250000      4.000000
 -0.428571  0.285714  0.250000      4.000000
[...]
  0.142857  0.000000  0.500000      4.000000
  0.285714  0.000000  0.500000      4.000000
  0.428571 -0.000000  0.500000      4.000000
  0.142857  0.142857  0.500000      2.000000
  0.285714  0.142857  0.500000      4.000000
  0.428571  0.142857  0.500000      4.000000
 -0.428571  0.142857  0.500000      4.000000
 -0.285714  0.142857  0.500000      4.000000
 -0.142857  0.142857  0.500000      2.000000
  0.285714  0.285714  0.500000      2.000000
  0.428571  0.285714  0.500000      4.000000
 -0.428571  0.285714  0.500000      4.000000
[...]
  -0.14285714  0.14285714  0.12500000       0.010
   0.28571429  0.28571429  0.12500000       0.005
   0.42857143  0.28571429  0.12500000       0.010
  -0.42857143  0.28571429  0.12500000       0.010
  -0.28571429  0.28571429  0.12500000       0.010
  -0.14285714  0.28571429  0.12500000       0.010
   0.42857143  0.42857143  0.12500000       0.005
  -0.42857143  0.42857143  0.12500000       0.010
  -0.28571429  0.42857143  0.12500000       0.010
  -0.14285714  0.42857143  0.12500000       0.010
  -0.42857143 -0.42857143  0.12500000       0.005
  -0.28571429 -0.42857143  0.12500000       0.010
  -0.14285714 -0.42857143  0.12500000       0.010
  -0.28571429 -0.28571429  0.12500000       0.005
  -0.14285714 -0.28571429  0.12500000       0.010
  -0.14285714 -0.14285714  0.12500000       0.005
  -0.00000000  0.00000000  0.25000000       0.005
   0.14285714  0.00000000  0.25000000       0.010
   0.28571429  0.00000000  0.25000000       0.010
   0.42857143  0.00000000  0.25000000       0.010
  -0.42857143  0.00000000  0.25000000       0.010
  -0.28571429  0.00000000  0.25000000       0.010
  -0.14285714  0.00000000  0.25000000       0.010
   0.14285714  0.14285714  0.25000000       0.005
   0.28571429  0.14285714  0.25000000       0.010
   0.42857143  0.14285714  0.25000000       0.010
  -0.42857143  0.14285714  0.25000000       0.010
  -0.28571429  0.14285714  0.25000000       0.010
  -0.14285714  0.14285714  0.25000000       0.010
   0.28571429  0.28571429  0.25000000       0.005
   0.42857143  0.28571429  0.25000000       0.010
  -0.42857143  0.28571429  0.25000000       0.010
[...]
   0.14285714  0.00000000  0.50000000       0.010
   0.28571429  0.00000000  0.50000000       0.010
   0.42857143 -0.00000000  0.50000000       0.010
   0.14285714  0.14285714  0.50000000       0.005
   0.28571429  0.14285714  0.50000000       0.010
   0.42857143  0.14285714  0.50000000       0.010
  -0.42857143  0.14285714  0.50000000       0.010
  -0.28571429  0.14285714  0.50000000       0.010
  -0.14285714  0.14285714  0.50000000       0.005
   0.28571429  0.28571429  0.50000000       0.005
   0.42857143  0.28571429  0.50000000       0.010
  -0.42857143  0.28571429  0.50000000       0.010
  -0.28571429  0.28571429  0.50000000       0.005
   0.42857143  0.42857143  0.50000000       0.005
  -0.42857143  0.42857143  0.50000000       0.005

 position of ions in fractional coordinates (direct lattice)
   0.50000000  0.50000000  0.00000000
   0.00000000  0.00000000  0.00000000
   0.25000000  0.25000000  0.00000000
   0.74208000  0.24208000  0.98416000
   0.75000000  0.75000000  0.00000000
   0.25792000  0.75792000  0.01584000
   0.24208000  0.25792000  0.50000000
   0.75792000  0.74208000  0.50000000
   0.00000000  0.50000000  0.00000000
   0.50000000  0.50000000  0.50000000
   0.50000000  0.00000000  0.00000000
   0.00000000  0.00000000  0.50000000

 position of ions in cartesian coordinates  (Angst):
   1.73116211  2.56968185 -2.82448434
   0.00000000  0.00000000  0.00000000
   0.86558105  1.28484092 -1.41224217
   3.61091741  1.24413716  3.34505715
   2.59674316  3.85452277 -4.23672652
  -0.14859319  3.89522653 -2.77064584
   0.80516169  1.32554468  1.69944783
   2.65716253  3.81381901 -1.12503652
  -1.04159585  2.56968185 -1.41224217
   1.73116211  2.56968185  0.28720566
   2.77275796  0.00000000 -1.41224217
   0.00000000  0.00000000  3.11169000

 k-point   1 :   0.0000 0.0000 0.0000  plane waves:    5941
 k-point   2 :   0.1429 0.0000 0.0000  plane waves:    5916
 k-point   3 :   0.2857 0.0000 0.0000  plane waves:    5937
 k-point   4 :   0.4286-0.0000 0.0000  plane waves:    5920
 k-point   5 :   0.1429 0.1429 0.0000  plane waves:    5925
 k-point   6 :   0.2857 0.1429 0.0000  plane waves:    5919
 k-point   7 :   0.4286 0.1429 0.0000  plane waves:    5908
 k-point   8 :  -0.4286 0.1429 0.0000  plane waves:    5909
 k-point   9 :  -0.2857 0.1429 0.0000  plane waves:    5939
 k-point  10 :  -0.1429 0.1429 0.0000  plane waves:    5917
 k-point  11 :   0.2857 0.2857 0.0000  plane waves:    5921
 k-point  12 :   0.4286 0.2857 0.0000  plane waves:    5915
 k-point  13 :  -0.4286 0.2857 0.0000  plane waves:    5936
 k-point  14 :  -0.2857 0.2857 0.0000  plane waves:    5936
 k-point  15 :   0.4286 0.4286 0.0000  plane waves:    5924
 k-point  16 :  -0.4286 0.4286 0.0000  plane waves:    5924
 k-point  17 :  -0.0000 0.0000 0.1250  plane waves:    5919
 k-point  18 :   0.1429 0.0000 0.1250  plane waves:    5931
 k-point  19 :   0.2857 0.0000 0.1250  plane waves:    5918
 k-point  20 :   0.4286-0.0000 0.1250  plane waves:    5907
 k-point  21 :  -0.4286 0.0000 0.1250  plane waves:    5916
 k-point  22 :  -0.2857 0.0000 0.1250  plane waves:    5929
 k-point  23 :  -0.1429 0.0000 0.1250  plane waves:    5919
 k-point  24 :   0.1429 0.1429 0.1250  plane waves:    5933
 k-point  25 :   0.2857 0.1429 0.1250  plane waves:    5925
 k-point  26 :   0.4286 0.1429 0.1250  plane waves:    5931
 k-point  27 :  -0.4286 0.1429 0.1250  plane waves:    5935
 k-point  28 :  -0.2857 0.1429 0.1250  plane waves:    5936
 k-point  29 :  -0.1429 0.1429 0.1250  plane waves:    5925
 k-point  30 :   0.2857 0.2857 0.1250  plane waves:    5938
 k-point  31 :   0.4286 0.2857 0.1250  plane waves:    5941
 k-point  32 :  -0.4286 0.2857 0.1250  plane waves:    5931
 k-point  33 :  -0.2857 0.2857 0.1250  plane waves:    5918
 k-point  34 :  -0.1429 0.2857 0.1250  plane waves:    5918
 k-point  35 :   0.4286 0.4286 0.1250  plane waves:    5922
 k-point  36 :  -0.4286 0.4286 0.1250  plane waves:    5924
 k-point  37 :  -0.2857 0.4286 0.1250  plane waves:    5924
 k-point  38 :  -0.1429 0.4286 0.1250  plane waves:    5904
 k-point  39 :  -0.4286-0.4286 0.1250  plane waves:    5920
 k-point  40 :  -0.2857-0.4286 0.1250  plane waves:    5912
 k-point  41 :  -0.1429-0.4286 0.1250  plane waves:    5912
 k-point  42 :  -0.2857-0.2857 0.1250  plane waves:    5915
 k-point  43 :  -0.1429-0.2857 0.1250  plane waves:    5916
 k-point  44 :  -0.1429-0.1429 0.1250  plane waves:    5886
 k-point  45 :  -0.0000 0.0000 0.2500  plane waves:    5938
 k-point  46 :   0.1429 0.0000 0.2500  plane waves:    5936
 k-point  47 :   0.2857 0.0000 0.2500  plane waves:    5916
 k-point  48 :   0.4286 0.0000 0.2500  plane waves:    5915
 k-point  49 :  -0.4286 0.0000 0.2500  plane waves:    5924
 k-point  50 :  -0.2857 0.0000 0.2500  plane waves:    5931
 k-point  51 :  -0.1429 0.0000 0.2500  plane waves:    5928
 k-point  52 :   0.1429 0.1429 0.2500  plane waves:    5939
 k-point  53 :   0.2857 0.1429 0.2500  plane waves:    5941
 k-point  54 :   0.4286 0.1429 0.2500  plane waves:    5926
 k-point  55 :  -0.4286 0.1429 0.2500  plane waves:    5924
 k-point  56 :  -0.2857 0.1429 0.2500  plane waves:    5924
 k-point  57 :  -0.1429 0.1429 0.2500  plane waves:    5928
 k-point  58 :   0.2857 0.2857 0.2500  plane waves:    5928
 k-point  59 :   0.4286 0.2857 0.2500  plane waves:    5916
 k-point  60 :  -0.4286 0.2857 0.2500  plane waves:    5922
[...]
 k-point 102 :   0.1429 0.0000 0.5000  plane waves:    5921
 k-point 103 :   0.2857 0.0000 0.5000  plane waves:    5913
 k-point 104 :   0.4286-0.0000 0.5000  plane waves:    5913
 k-point 105 :   0.1429 0.1429 0.5000  plane waves:    5932
 k-point 106 :   0.2857 0.1429 0.5000  plane waves:    5913
 k-point 107 :   0.4286 0.1429 0.5000  plane waves:    5915
 k-point 108 :  -0.4286 0.1429 0.5000  plane waves:    5904
 k-point 109 :  -0.2857 0.1429 0.5000  plane waves:    5916
 k-point 110 :  -0.1429 0.1429 0.5000  plane waves:    5938
 k-point 111 :   0.2857 0.2857 0.5000  plane waves:    5921
 k-point 112 :   0.4286 0.2857 0.5000  plane waves:    5897
 k-point 113 :  -0.4286 0.2857 0.5000  plane waves:    5895
 k-point 114 :  -0.2857 0.2857 0.5000  plane waves:    5908
 k-point 115 :   0.4286 0.4286 0.5000  plane waves:    5893
 k-point 116 :  -0.4286 0.4286 0.5000  plane waves:    5880

 maximum and minimum number of plane-waves per node :      2990     2920

 maximum number of plane-waves:      5944
 maximum index in each direction:
   IXMAX=   12   IYMAX=   12   IZMAX=   12
   IXMIN=  -12   IYMIN=  -12   IZMIN=  -12

 parallel 3D FFT for wavefunctions:
    minimum data exchange during FFTs selected (reduces bandwidth)
 parallel 3D FFT for charge:
    minimum data exchange during FFTs selected (reduces bandwidth)

 Broyden mixing: mesh for mixing (old mesh)
   NGX = 25   NGY = 25   NGZ = 25
  (NGX  =100   NGY  =100   NGZ  =100)
  gives a total of  15625 points

 initial charge density was supplied:
 charge density of overlapping atoms calculated
 number of electron     106.0000000 magnetization
 keeping initial charge density in first step

 Maximum index for augmentation-charges        20138 (set IRDMAX)

 First call to EWALD:  gamma=   0.315
 Maximum number of real-space cells 3x 3x 3
 Maximum number of reciprocal cells 3x 3x 3

--------------------------------------- Iteration      1(   1)  ---------------------------------------

 eigenvalue-minimisations  : 15444
 total energy-change (2. order) : 0.1124069E+04  (-0.7185227E+04)
 number of electron     106.0000000 magnetization
 augmentation part      106.0000000 magnetization

 Free energy of the ion-electron system (eV)
  alpha Z        PSCENC =       519.53027464
  Ewald energy   TEWEN  =     -8840.68973476
  -Hartree energ DENC   =     -2934.38997059
  -exchange      EXHF   =         0.00000000
  -V(xc)+E(xc)   XCENC  =       461.24864322
  PAW double counting   =      9333.50011946    -9270.82734050
  entropy T*S    EENTRO =        -0.00059204
  eigenvalues    EBANDS =       127.39658118
  atomic energy  EATOM  =     11728.30056431
  free energy    TOTEN  =      1124.06854492 eV

  energy without entropy =     1124.06913696  energy(sigma->0) =     1124.06884094

[...]

 eigenvalue-minimisations  : 17184
 total energy-change (2. order) :-0.1307502E+04  (-0.1280941E+04)
 number of electron     106.0000000 magnetization
 augmentation part      106.0000000 magnetization

[...]

 eigenvalue-minimisations  :     0
 total energy-change (2. order) : 0.1818989E-08  (-0.2770002E-08)
 number of electron     106.0000001 magnetization
 augmentation part       13.8555319 magnetization

[...]

--------------------------------------- Iteration      1(  31)  ---------------------------------------

 eigenvalue-minimisations  :     0
 total energy-change (2. order) :-0.5093170E-10  (-0.8817684E-09)
 number of electron     106.0000001 magnetization
 augmentation part       13.8555296 magnetization

 Free energy of the ion-electron system (eV)
  alpha Z        PSCENC =       519.53027464
  Ewald energy   TEWEN  =     -8840.68973476
  -Hartree energ DENC   =     -2843.20746095
  -exchange      EXHF   =         0.00000000
  -V(xc)+E(xc)   XCENC  =       473.37984743
  PAW double counting   =     15775.80914996   -15730.50591192
  entropy T*S    EENTRO =        -0.00120121
  eigenvalues    EBANDS =     -1276.07183633
  atomic energy  EATOM  =     11728.30056431
  free energy    TOTEN  =      -193.45630883 eV

  energy without entropy =     -193.45510761  energy(sigma->0) =     -193.45570822

  average scaling for gradient   1.0391

 average (electrostatic) potential at core
  the test charge radii are     0.7672  1.0818  0.9892
  (the norm of the test charge is              1.0000)
       1 -24.1198       2 -24.1198       3 -76.9811       4 -76.5894       5 -76.9811
       6 -76.5894       7 -76.5893       8 -76.5893       9 -82.5064      10 -82.5064
      11 -82.5064      12 -82.5064

 E-fermi :   9.6321     XC(G=0): -12.6725     alpha+bet :-17.2297

 Fermi energy:         9.6321317696

 k-point     1 :       0.0000    0.0000    0.0000
  band No.  band energies     occupation
      1     -53.1782      2.00000
      2     -53.1725      2.00000
      3     -52.7706      2.00000
      4     -52.7575      2.00000
      5     -52.7575      2.00000
      6     -52.7454      2.00000
      7     -26.9706      2.00000
      8     -26.9705      2.00000
      9     -26.8771      2.00000
     10     -26.8770      2.00000
     11     -26.8716      2.00000
     12     -26.8416      2.00000
     13     -26.5681      2.00000
     14     -26.4794      2.00000
     15     -26.4794      2.00000
     16     -26.4184      2.00000
     17     -26.2991      2.00000
     18     -26.2990      2.00000
     19     -26.2508      2.00000
     20     -26.2224      2.00000
     21     -26.1031      2.00000
     22     -25.9755      2.00000
     23     -25.9755      2.00000
     24     -25.8969      2.00000
     25      -1.9298      2.00000
     26       0.3243      2.00000
     27       0.4127      2.00000
     28       2.4764      2.00000
     29       3.0797      2.00000
     30       3.0798      2.00000
     31       3.2018      2.00000
     32       3.2019      2.00000
     33       3.3458      2.00000
     34       3.3983      2.00000
     35       4.4598      2.00000
     36       5.3994      2.00000
     37       5.4996      2.00000
     38       5.4996      2.00000
     39       5.5142      2.00000
     40       5.5143      2.00000
     41       6.2336      2.00000
     42       6.5455      2.00000
     43       6.5455      2.00000
     44       7.1280      2.00000
     45       8.0847      2.00000
     46       8.7518      2.00000
     47       8.8055      2.00000
     48       9.0236      2.00000
     49       9.0237      2.00000
     50       9.1984      2.00000
     51       9.2214      2.00000
     52       9.2214      2.00000
     53       9.4230      2.00000
     54      10.1654      0.00000
     55      10.3577      0.00000
     56      10.7491      0.00000
     57      10.7491      0.00000
     58      11.2090      0.00000
     59      11.4094      0.00000
     60      11.7304      0.00000
     61      11.7669      0.00000
     62      12.2863      0.00000
     63      12.5808      0.00000
     64      12.7971      0.00000
     65      12.8247      0.00000
     66      13.0220      0.00000

[...]

 k-point   116 :      -0.4286    0.4286    0.5000
  band No.  band energies     occupation
      1     -53.1737      2.00000
      2     -53.1725      2.00000
      3     -52.7723      2.00000
      4     -52.7605      2.00000
      5     -52.7604      2.00000
      6     -52.7428      2.00000
      7     -26.8255      2.00000
      8     -26.8225      2.00000
      9     -26.8225      2.00000
     10     -26.8079      2.00000
     11     -26.6686      2.00000
     12     -26.6648      2.00000
     13     -26.6527      2.00000
     14     -26.6078      2.00000
     15     -26.5897      2.00000
     16     -26.5758      2.00000
     17     -26.4716      2.00000
     18     -26.3707      2.00000
     19     -26.3636      2.00000
     20     -26.2248      2.00000
     21     -26.1015      2.00000
     22     -25.9762      2.00000
     23     -25.9762      2.00000
     24     -25.8994      2.00000
     25       0.2102      2.00000
     26       0.4063      2.00000
     27       0.5490      2.00000
     28       0.9598      2.00000
     29       1.2320      2.00000
     30       2.3942      2.00000
     31       4.3454      2.00000
     32       4.7382      2.00000
     33       4.7467      2.00000
     34       4.9074      2.00000
     35       5.0240      2.00000
     36       5.0746      2.00000
     37       5.1436      2.00000
     38       5.2847      2.00000
     39       5.4222      2.00000
     40       5.4524      2.00000
     41       5.7581      2.00000
     42       5.8417      2.00000
     43       5.9573      2.00000
     44       7.0729      2.00000
     45       7.1189      2.00000
     46       7.3476      2.00000
     47       7.4994      2.00000
     48       7.5522      2.00000
     49       7.6629      2.00000
     50       7.9603      2.00000
     51       8.2317      2.00000
     52       9.0144      2.00000
     53       9.1303      2.00000
     54       9.2035      2.00000
     55       9.6194      1.62996
     56      10.6637      0.00000
     57      11.0999      0.00000
     58      12.0902      0.00000
     59      12.1757      0.00000
     60      12.1976      0.00000
     61      12.3512      0.00000
     62      13.1383      0.00000
     63      13.4666      0.00000
     64      13.6829      0.00000
     65      13.8641      0.00000
     66      13.9950      0.00000

 soft charge-density along one line, spin component           1
         0         1         2         3         4         5         6         7         8         9
 total charge-density along one line

------------------------ aborting loop because EDIFF is reached ----------------------------------------

  FREE ENERGIE OF THE ION-ELECTRON SYSTEM (eV)
  free  energy   TOTEN  =      -193.45630883 eV

  energy  without entropy=     -193.45510761  energy(sigma->0) =     -193.45570822

 writing wavefunctions