 vasp.6.2.0 18Jan21 (build Jan 05 2022 15:41:44) complex

 executed on             LinuxIFC date 2025.05.07  21:30:10

 INCAR:
   SYSTEM = routine with relax: pwdword
   ICHARG = 2
   NPAR = 6
   KPAR = 2
   NCORE = 2
   ADDGRID = T
   PREC = Acc
   ENCUT = 600
   METAGGA = R2SCAN
   LASPH = .TRUE.
   LMIXTAU = .FALSE.
   ALGO = A
   EDIFF = 1E-9
   NELM = 100
   NELMIN = 6
   IALGO = 38
   LREAL = F
   NSW = 0
   ISIF = -1
   ISMEAR = 0
   SIGMA = 0.02

 POTCAR:    PAW_PBE B 06Sep2000
 POTCAR:    PAW_PBE Si 05Jan2001
|           W    W    AA    RRRRR   N    N  II  N    N   GGGG   !!!           |
|           W    W   A  A   R    R  NN   N  II  NN   N  G    G  !!!           |
|           W    W  A    A  R    R  N N  N  II  N N  N  G       !!!           |
|           W WW W  AAAAAA  RRRRR   N  N N  II  N  N N  G  GGG   !            |
|           WW  WW  A    A  R   R   N   NN  II  N   NN  G    G                |
|           W    W  A    A  R    R  N    N  II  N    N   GGGG   !!!           |
|     For optimal performance we recommend to set                             |
|       NCORE = 2 up to number-of-cores-per-socket                            |
|     This setting can greatly improve the performance of VASP for DFT.       |
|     The default, NCORE=1 might be grossly inefficient on modern             |
|     multi-core architectures or massively parallel machines. Do your        |
|     Unfortunately you need to use the default for GW and RPA                |
|     calculations (for HF NCORE is supported but not extensively tested      |
|     yet).                                                                   |

 POTCAR:    PAW_PBE B 06Sep2000
   VRHFIN =B: s2p1

   TITEL  = PAW_PBE B 06Sep2000
   POMASS =   10.811; ZVAL   =    3.000    mass and valenz
   ENMAX  =  318.614; ENMIN  =  238.960 eV

 POTCAR:    PAW_PBE Si 05Jan2001
   VRHFIN =Si: s2p2

   TITEL  = PAW_PBE Si 05Jan2001
   POMASS =   28.085; ZVAL   =    4.000    mass and valenz
   ENMAX  =  245.345; ENMIN  =  184.009 eV

  PAW_PBE B 06Sep2000                   :
  PAW_PBE Si 05Jan2001                  :

 POSCAR: EA261
  positions in direct lattice

 METAGGA = R2SCA    LMAXTAU =  6    LMIXTAU =  F

 ion  position               nearest neighbor table
   1  0.275  0.823  0.823-   4 1.75   5 1.75   8 1.83   9 1.83  12 1.86  14 2.01  15 2.63
   2  0.823  0.823  0.275-   4 1.75   6 1.75   7 1.83   9 1.83  11 1.86  14 2.01  15 2.63
   3  0.823  0.275  0.823-   6 1.75   5 1.75   8 1.83   7 1.83  10 1.86  14 2.01  15 2.63
   4  0.177  0.725  0.177-   1 1.75   2 1.75  11 1.83  12 1.83   9 1.86  13 2.01  15 2.63
   5  0.177  0.177  0.725-   1 1.75   3 1.75  12 1.83  10 1.83   8 1.86  13 2.01  15 2.63
   6  0.725  0.177  0.177-   3 1.75   2 1.75  10 1.83  11 1.83   7 1.86  13 2.01  15 2.63
   7  0.677  0.986  0.986-   3 1.83   2 1.83  12 1.85   6 1.86   8 1.92   9 1.92
   8  0.986  0.986  0.677-   1 1.83   3 1.83  11 1.85   5 1.86   9 1.92   7 1.92
   9  0.986  0.677  0.986-   1 1.83   2 1.83  10 1.85   4 1.86   8 1.92   7 1.92
  10  0.014  0.323  0.014-   5 1.83   6 1.83   9 1.85   3 1.86  12 1.92  11 1.92
  11  0.014  0.014  0.323-   4 1.83   6 1.83   8 1.85   2 1.86  12 1.92  10 1.92
  12  0.323  0.014  0.014-   5 1.83   4 1.83   7 1.85   1 1.86  11 1.92  10 1.92
  13  0.326  0.326  0.326-   5 2.01   4 2.01   6 2.01  15 2.17
  14  0.674  0.674  0.674-   2 2.01   1 2.01   3 2.01  15 2.17
  15  0.500  0.500  0.500-  14 2.17  13 2.17   4 2.63   6 2.63   1 2.63   3 2.63   5 2.63   2 2.63

  LATTYP: Found a trigonal (rhomboedric) cell.
 ALAT       =     5.4919374563
 COS(alpha) =     0.3588660945

  Lattice vectors:

 A1 = (   4.5268800000,  -3.1094600000,   0.0000000000)
 A2 = (   4.5268800000,   3.1094600000,   0.0000000000)
 A3 = (   2.3910280000,   0.0000000000,   4.9441240000)

Analysis of symmetry for initial positions (statically):
 Subroutine PRICEL returns:
 Original cell was already a primitive cell.

 Routine SETGRP: Setting up the symmetry group for a
 trigonal (rhombohedral) supercell.

 Subroutine GETGRP returns: Found 12 space group operations
 (whereof 12 operations were pure point group operations)
 out of a pool of 12 trial point group operations.

The static configuration has the point symmetry D_3d.

Analysis of symmetry for dynamics (positions and initial velocities):
 Subroutine PRICEL returns:
 Original cell was already a primitive cell.

 Routine SETGRP: Setting up the symmetry group for a
 trigonal (rhombohedral) supercell.

 Subroutine GETGRP returns: Found 12 space group operations
 (whereof 12 operations were pure point group operations)
 out of a pool of 12 trial point group operations.

The dynamic configuration has the point symmetry D_3d.

 Subroutine INISYM returns: Found 12 space group operations
 (whereof 12 operations are pure point group operations),
 and found     1 'primitive' translations

                                     Primitive cell

  volume of cell :     139.1885

  direct lattice vectors                    reciprocal lattice vectors
     4.526880000 -3.109460000  0.000000000     0.110451348 -0.160799624 -0.053415381
     4.526880000  3.109460000  0.000000000     0.110451348  0.160799624 -0.053415381
     2.391028000  0.000000000  4.944124000     0.000000000  0.000000000  0.202260299

  length of vectors
     5.491938094  5.491938094  5.491937456     0.202260284  0.202260284  0.202260299

  position of ions in fractional coordinates (direct lattice)
     0.274743000  0.822719000  0.822719000
     0.822719000  0.822719000  0.274743000
     0.822719000  0.274743000  0.822719000
     0.177281000  0.725257000  0.177281000
     0.177281000  0.177281000  0.725257000
     0.725257000  0.177281000  0.177281000
     0.677004000  0.985844000  0.985843000
     0.985844000  0.985844000  0.677004000
     0.985844000  0.677004000  0.985843000
     0.014156000  0.322996000  0.014156000
     0.014157000  0.014156000  0.322996000
     0.322996000  0.014156000  0.014156000
     0.325678000  0.325678000  0.325678000
     0.674322000  0.674322000  0.674322000
     0.500000000  0.500000000  0.500000000

  ion indices of the primitive-cell ions
   primitive index   ion index
                 1           1
                 2           2
                 3           3
                 4           4
                 5           5
                 6           6
                 7           7
                 8           8
                 9           9
                10          10
                11          11
                12          12
                13          13
                14          14
                15          15

 KPOINTS: EA

Automatic generation of k-mesh.
 Grid dimensions read from file:
 generate k-points for:    7    7    7

 Generating k-lattice:

  Cartesian coordinates                     Fractional coordinates (reciprocal lattice)
     0.015778764 -0.022971375 -0.007630769     0.142857143  0.000000000  0.000000000
     0.015778764  0.022971375 -0.007630769     0.000000000  0.142857143  0.000000000
     0.000000000  0.000000000  0.028894328     0.000000000  0.000000000  0.142857143

  Length of vectors
     0.028894326  0.028894326  0.028894328

  Shift w.r.t. Gamma in fractional coordinates (k-lattice)
     0.000000000  0.000000000  0.000000000

 Subroutine IBZKPT returns following result:

 Found     44 irreducible k-points:

 Following reciprocal coordinates:
            Coordinates               Weight
  0.000000  0.000000  0.000000      1.000000
  0.142857 -0.000000  0.000000      6.000000
  0.285714  0.000000  0.000000      6.000000
  0.428571 -0.000000 -0.000000      6.000000
  0.142857  0.142857  0.000000      6.000000
  0.285714  0.142857  0.000000     12.000000
  0.428571  0.142857  0.000000     12.000000
 -0.428571  0.142857  0.000000     12.000000
 -0.285714  0.142857  0.000000     12.000000
 -0.142857  0.142857  0.000000      6.000000
  0.285714  0.285714  0.000000      6.000000
  0.428571  0.285714 -0.000000     12.000000
 -0.428571  0.285714  0.000000     12.000000
 -0.285714  0.285714  0.000000      6.000000
  0.428571  0.428571  0.000000      6.000000
 -0.428571  0.428571  0.000000      6.000000
  0.142857  0.142857  0.142857      2.000000
  0.285714  0.142857  0.142857      6.000000
  0.428571  0.142857  0.142857      6.000000
 -0.428571  0.142857  0.142857      6.000000
 -0.285714  0.142857  0.142857      6.000000
 -0.142857  0.142857  0.142857      6.000000
  0.285714  0.285714  0.142857      6.000000
  0.428571  0.285714  0.142857     12.000000
 -0.428571  0.285714  0.142857     12.000000
 -0.285714  0.285714  0.142857     12.000000
 -0.142857  0.285714  0.142857     12.000000
  0.428571  0.428571  0.142857      6.000000
 -0.428571  0.428571  0.142857     12.000000
 -0.285714  0.428571  0.142857     12.000000
 -0.142857  0.428571  0.142857     12.000000
 -0.428571 -0.428571  0.142857      6.000000
 -0.285714 -0.428571  0.142857     12.000000
 -0.285714 -0.285714  0.142857      6.000000
  0.285714  0.285714  0.285714      2.000000
  0.428571  0.285714  0.285714      6.000000
 -0.428571  0.285714  0.285714      6.000000
 -0.285714  0.285714  0.285714      6.000000
  0.428571  0.428571  0.285714      6.000000
 -0.428571  0.428571  0.285714     12.000000
 -0.285714  0.428571  0.285714     12.000000
 -0.428571 -0.428571  0.285714      6.000000
  0.428571  0.428571  0.428571      2.000000
 -0.428571  0.428571  0.428571      6.000000

 Following cartesian coordinates:
            Coordinates               Weight
  0.000000  0.000000  0.000000      1.000000
  0.015779 -0.022971 -0.007631      6.000000
  0.031558 -0.045943 -0.015262      6.000000
  0.047336 -0.068914 -0.022892      6.000000
  0.031558  0.000000 -0.015262      6.000000
  0.047336 -0.022971 -0.022892     12.000000
  0.063115 -0.045943 -0.030523     12.000000
 -0.031558  0.091885  0.015262     12.000000
 -0.015779  0.068914  0.007631     12.000000
  0.000000  0.045943  0.000000      6.000000
  0.063115  0.000000 -0.030523      6.000000
  0.078894 -0.022971 -0.038154     12.000000
 -0.015779  0.114857  0.007631     12.000000
  0.000000  0.091885  0.000000      6.000000
  0.094673  0.000000 -0.045785      6.000000
  0.000000  0.137828  0.000000      6.000000
  0.031558  0.000000  0.013633      2.000000
  0.047336 -0.022971  0.006002      6.000000
  0.063115 -0.045943 -0.001629      6.000000
 -0.031558  0.091885  0.044156      6.000000
 -0.015779  0.068914  0.036525      6.000000
  0.000000  0.045943  0.028894      6.000000
  0.063115  0.000000 -0.001629      6.000000
  0.078894 -0.022971 -0.009260     12.000000
 -0.015779  0.114857  0.036525     12.000000
  0.000000  0.091885  0.028894     12.000000
  0.015779  0.068914  0.021264     12.000000
  0.094673  0.000000 -0.016890      6.000000
  0.000000  0.137828  0.028894     12.000000
  0.015779  0.114857  0.021264     12.000000
  0.031558  0.091885  0.013633     12.000000
 -0.094673  0.000000  0.074679      6.000000
 -0.078894 -0.022971  0.067048     12.000000
 -0.063115  0.000000  0.059417      6.000000
  0.063115  0.000000  0.027266      2.000000
  0.078894 -0.022971  0.019635      6.000000
 -0.015779  0.114857  0.065419      6.000000
[...]
   ORBITALMAG=     F  switch on orbital magnetization
   LCHIMAG   =     F  perturbation theory with respect to B field
   DQ        =  0.001000  dq finite difference perturbation B field
   LLRAUG    =     F  two centre corrections for induced B field

 Static calculation
 charge density and potential will be updated during run
 non-spin polarized calculation
 Conjugate gradient for all bands (Freysoldt, et al. PRB 79, 241103 (2009))
 preconditioned conjugated gradient
 perform sub-space diagonalisation
    before iterative eigenvector-optimisation
 modified Broyden-mixing scheme, WC =      100.0
 initial mixing is a Kerker type mixing with AMIX =  0.4000 and BMIX =      1.0000
 Hartree-type preconditioning will be used
 using additional bands           12
 reciprocal scheme for non local part
 use partial core corrections
 no Harris-corrections to forces
 use gradient corrections
 use of overlap-Matrix (Vanderbilt PP)
 Gauss-broadening in eV      SIGMA  =   0.02

  energy-cutoff  :      600.00
  volume of cell :      139.19
      direct lattice vectors                 reciprocal lattice vectors
     4.526880000 -3.109460000  0.000000000     0.110451348 -0.160799624 -0.053415381
     4.526880000  3.109460000  0.000000000     0.110451348  0.160799624 -0.053415381
     2.391028000  0.000000000  4.944124000     0.000000000  0.000000000  0.202260299

  length of vectors
     5.491938094  5.491938094  5.491937456     0.202260284  0.202260284  0.202260299

 k-points in units of 2pi/SCALE and weight: EA
   0.00000000  0.00000000  0.00000000       0.003
   0.01577876 -0.02297137 -0.00763077       0.017
   0.03155753 -0.04594275 -0.01526154       0.017
   0.04733629 -0.06891412 -0.02289231       0.017
   0.03155753  0.00000000 -0.01526154       0.017
   0.04733629 -0.02297137 -0.02289231       0.035
   0.06311506 -0.04594275 -0.03052307       0.035
  -0.03155753  0.09188550  0.01526154       0.035
  -0.01577876  0.06891412  0.00763077       0.035
   0.00000000  0.04594275  0.00000000       0.017
   0.06311506  0.00000000 -0.03052307       0.017
   0.07889382 -0.02297137 -0.03815384       0.035
  -0.01577876  0.11485687  0.00763077       0.035
   0.00000000  0.09188550  0.00000000       0.017
   0.09467258  0.00000000 -0.04578461       0.017
   0.00000000  0.13782825  0.00000000       0.017
   0.03155753  0.00000000  0.01363279       0.006
   0.04733629 -0.02297137  0.00600202       0.017
   0.06311506 -0.04594275 -0.00162875       0.017
  -0.03155753  0.09188550  0.04415587       0.017
  -0.01577876  0.06891412  0.03652510       0.017
   0.00000000  0.04594275  0.02889433       0.017
   0.06311506  0.00000000 -0.00162875       0.017
   0.07889382 -0.02297137 -0.00925952       0.035
  -0.01577876  0.11485687  0.03652510       0.035
   0.00000000  0.09188550  0.02889433       0.035
   0.01577876  0.06891412  0.02126356       0.035
   0.09467258  0.00000000 -0.01689028       0.017
   0.00000000  0.13782825  0.02889433       0.035
   0.01577876  0.11485687  0.02126356       0.035
   0.03155753  0.09188550  0.01363279       0.035
  -0.09467258  0.00000000  0.07467894       0.017
  -0.07889382 -0.02297137  0.06704817       0.035
  -0.06311506  0.00000000  0.05941740       0.017
   0.06311506  0.00000000  0.02726558       0.006
   0.07889382 -0.02297137  0.01963481       0.017
  -0.01577876  0.11485687  0.06541943       0.017
   0.00000000  0.09188550  0.05778866       0.017
   0.09467258  0.00000000  0.01200404       0.017
   0.00000000  0.13782825  0.05778866       0.035
   0.01577876  0.11485687  0.05015789       0.035
  -0.09467258  0.00000000  0.10357327       0.017
   0.09467258  0.00000000  0.04089837       0.006
   0.00000000  0.13782825  0.08668299       0.017

 k-points in reciprocal lattice and weights: EA
   0.00000000  0.00000000  0.00000000       0.003
   0.14285714 -0.00000000  0.00000000       0.017
   0.28571429  0.00000000  0.00000000       0.017
   0.42857143 -0.00000000 -0.00000000       0.017
   0.14285714  0.14285714  0.00000000       0.017
   0.28571429  0.14285714  0.00000000       0.035
   0.42857143  0.14285714  0.00000000       0.035
  -0.42857143  0.14285714  0.00000000       0.035
  -0.28571429  0.14285714  0.00000000       0.035
  -0.14285714  0.14285714  0.00000000       0.017
   0.28571429  0.28571429  0.00000000       0.017
   0.42857143  0.28571429 -0.00000000       0.035
  -0.42857143  0.28571429  0.00000000       0.035
  -0.28571429  0.28571429  0.00000000       0.017
   0.42857143  0.42857143  0.00000000       0.017
  -0.42857143  0.42857143  0.00000000       0.017
   0.14285714  0.14285714  0.14285714       0.006
   0.28571429  0.14285714  0.14285714       0.017
   0.42857143  0.14285714  0.14285714       0.017
  -0.42857143  0.14285714  0.14285714       0.017
  -0.28571429  0.14285714  0.14285714       0.017
  -0.14285714  0.14285714  0.14285714       0.017
   0.28571429  0.28571429  0.14285714       0.017
   0.42857143  0.28571429  0.14285714       0.035
  -0.42857143  0.28571429  0.14285714       0.035
  -0.28571429  0.28571429  0.14285714       0.035
  -0.14285714  0.28571429  0.14285714       0.035
   0.42857143  0.42857143  0.14285714       0.017
  -0.42857143  0.42857143  0.14285714       0.035
  -0.28571429  0.42857143  0.14285714       0.035
  -0.14285714  0.42857143  0.14285714       0.035
  -0.42857143 -0.42857143  0.14285714       0.017
  -0.28571429 -0.42857143  0.14285714       0.035
  -0.28571429 -0.28571429  0.14285714       0.017
   0.28571429  0.28571429  0.28571429       0.006
   0.42857143  0.28571429  0.28571429       0.017
  -0.42857143  0.28571429  0.28571429       0.017
  -0.28571429  0.28571429  0.28571429       0.017
   0.42857143  0.42857143  0.28571429       0.017
  -0.42857143  0.42857143  0.28571429       0.035
  -0.28571429  0.42857143  0.28571429       0.035
  -0.42857143 -0.42857143  0.28571429       0.017
   0.42857143  0.42857143  0.42857143       0.006
  -0.42857143  0.42857143  0.42857143       0.017

 position of ions in fractional coordinates (direct lattice)
   0.27474300  0.82271900  0.82271900
   0.82271900  0.82271900  0.27474300
   0.82271900  0.27474300  0.82271900
   0.17728100  0.72525700  0.17728100
   0.17728100  0.17728100  0.72525700
   0.72525700  0.17728100  0.17728100
   0.67700400  0.98584400  0.98584300
   0.98584400  0.98584400  0.67700400
   0.98584400  0.67700400  0.98584300
   0.01415600  0.32299600  0.01415600
   0.01415700  0.01415600  0.32299600
   0.32299600  0.01415600  0.01415600
   0.32567800  0.32567800  0.32567800
   0.67432200  0.67432200  0.67432200
   0.50000000  0.50000000  0.50000000

 position of ions in cartesian coordinates  (Angst):
   6.93522294  1.70390945  4.06762475
   8.10561858  0.00000000  1.35836346
   6.93522294 -1.70390945  4.06762475
   4.50956506  1.70390945  0.87649925
   3.33916942  0.00000000  3.58576054
   4.50956506 -1.70390945  0.87649925
   9.88469157  0.96032563  4.87413004
  10.54433049  0.00000000  3.34719172
   9.88469157 -0.96032563  4.87413004
   1.56009404  0.96032563  0.06998902
   0.90046203 -0.00000311  1.59693228
   1.56009404 -0.96032563  0.06998902
   3.72731567  0.00000000  1.61019242
   7.71747233  0.00000000  3.33393158
   5.72239400  0.00000000  2.47206200

 k-point   1 :   0.0000 0.0000 0.0000  plane waves:    4643
 k-point   2 :   0.1429-0.0000 0.0000  plane waves:    4636
 k-point   3 :   0.2857 0.0000 0.0000  plane waves:    4649
 k-point   4 :   0.4286-0.0000-0.0000  plane waves:    4622
 k-point   5 :   0.1429 0.1429 0.0000  plane waves:    4644
 k-point   6 :   0.2857 0.1429 0.0000  plane waves:    4638
 k-point   7 :   0.4286 0.1429 0.0000  plane waves:    4633
 k-point   8 :  -0.4286 0.1429 0.0000  plane waves:    4625
 k-point   9 :  -0.2857 0.1429 0.0000  plane waves:    4623
 k-point  10 :  -0.1429 0.1429 0.0000  plane waves:    4629
 k-point  11 :   0.2857 0.2857 0.0000  plane waves:    4642
 k-point  12 :   0.4286 0.2857-0.0000  plane waves:    4648
 k-point  13 :  -0.4286 0.2857 0.0000  plane waves:    4651
 k-point  14 :  -0.2857 0.2857 0.0000  plane waves:    4630
 k-point  15 :   0.4286 0.4286 0.0000  plane waves:    4649
 k-point  16 :  -0.4286 0.4286 0.0000  plane waves:    4648
 k-point  17 :   0.1429 0.1429 0.1429  plane waves:    4670
 k-point  18 :   0.2857 0.1429 0.1429  plane waves:    4671
 k-point  19 :   0.4286 0.1429 0.1429  plane waves:    4649
 k-point  20 :  -0.4286 0.1429 0.1429  plane waves:    4636
 k-point  21 :  -0.2857 0.1429 0.1429  plane waves:    4637
 k-point  22 :  -0.1429 0.1429 0.1429  plane waves:    4642
 k-point  23 :   0.2857 0.2857 0.1429  plane waves:    4658
 k-point  24 :   0.4286 0.2857 0.1429  plane waves:    4660
 k-point  25 :  -0.4286 0.2857 0.1429  plane waves:    4645
 k-point  26 :  -0.2857 0.2857 0.1429  plane waves:    4641
 k-point  27 :  -0.1429 0.2857 0.1429  plane waves:    4638
 k-point  28 :   0.4286 0.4286 0.1429  plane waves:    4648
 k-point  29 :  -0.4286 0.4286 0.1429  plane waves:    4651
 k-point  30 :  -0.2857 0.4286 0.1429  plane waves:    4649
 k-point  31 :  -0.1429 0.4286 0.1429  plane waves:    4640
 k-point  32 :  -0.4286-0.4286 0.1429  plane waves:    4648
 k-point  33 :  -0.2857-0.4286 0.1429  plane waves:    4649
 k-point  34 :  -0.2857-0.2857 0.1429  plane waves:    4635
 k-point  35 :   0.2857 0.2857 0.2857  plane waves:    4649
 k-point  36 :   0.4286 0.2857 0.2857  plane waves:    4666
 k-point  37 :  -0.4286 0.2857 0.2857  plane waves:    4656
 k-point  38 :  -0.2857 0.2857 0.2857  plane waves:    4645
 k-point  39 :   0.4286 0.4286 0.2857  plane waves:    4661
 k-point  40 :  -0.4286 0.4286 0.2857  plane waves:    4651
 k-point  41 :  -0.2857 0.4286 0.2857  plane waves:    4652
 k-point  42 :  -0.4286-0.4286 0.2857  plane waves:    4657
 k-point  43 :   0.4286 0.4286 0.4286  plane waves:    4663
 k-point  44 :  -0.4286 0.4286 0.4286  plane waves:    4652

 maximum and minimum number of plane-waves per node :      2376     2269

 maximum number of plane-waves:      4671
 maximum index in each direction:
   IXMAX=   11   IYMAX=   11   IZMAX=   10
   IXMIN=  -11   IYMIN=  -11   IZMIN=  -11

 parallel 3D FFT for wavefunctions:
    minimum data exchange during FFTs selected (reduces bandwidth)
 parallel 3D FFT for charge:
    minimum data exchange during FFTs selected (reduces bandwidth)

 Broyden mixing: mesh for mixing (old mesh)
   NGX = 21   NGY = 21   NGZ = 21
  (NGX  = 96   NGY  = 96   NGZ  = 96)
  gives a total of   9261 points

 initial charge density was supplied:
 charge density of overlapping atoms calculated
 number of electron      48.0000000 magnetization
 keeping initial charge density in first step

 Maximum index for augmentation-charges        17179 (set IRDMAX)

 First call to EWALD:  gamma=   0.342
 Maximum number of real-space cells 3x 3x 3
 Maximum number of reciprocal cells 3x 3x 3

--------------------------------------- Iteration      1(   1)  ---------------------------------------

 eigenvalue-minimisations  :  3168
 total energy-change (2. order) : 0.1000296E+03  (-0.2687452E+04)
 number of electron      48.0000000 magnetization
 augmentation part       48.0000000 magnetization

 Free energy of the ion-electron system (eV)
  alpha Z        PSCENC =       103.60434174
  Ewald energy   TEWEN  =     -1346.74974801
  -Hartree energ DENC   =      -117.69021389
  -exchange      EXHF   =         0.00000000
  -V(xc)+E(xc)   XCENC  =        91.46085653
  PAW double counting   =       750.75524268     -723.24308815
  entropy T*S    EENTRO =        -0.00027454
  eigenvalues    EBANDS =       178.65760195
  atomic energy  EATOM  =      1163.23488769
  free energy    TOTEN  =       100.02960599 eV

  energy without entropy =      100.02988054  energy(sigma->0) =      100.02974326

[...]

 eigenvalue-minimisations  :  4188
 total energy-change (2. order) :-0.2139038E+03  (-0.1980437E+03)
 number of electron      48.0000000 magnetization
 augmentation part       48.0000000 magnetization

[...]

 eigenvalue-minimisations  :     0
 total energy-change (2. order) :-0.6887694E-07  (-0.2578330E-08)
 number of electron      48.0000000 magnetization
 augmentation part       -0.8902899 magnetization

[...]

--------------------------------------- Iteration      1(  19)  ---------------------------------------

 eigenvalue-minimisations  :     0
 total energy-change (2. order) : 0.5857146E-09  (-0.7783267E-09)
 number of electron      48.0000000 magnetization
 augmentation part       -0.8902897 magnetization

 Free energy of the ion-electron system (eV)
  alpha Z        PSCENC =       103.60434174
  Ewald energy   TEWEN  =     -1346.74974801
  -Hartree energ DENC   =      -161.25159125
  -exchange      EXHF   =         0.00000000
  -V(xc)+E(xc)   XCENC  =        97.24642638
  PAW double counting   =      5566.24282497    -5539.94439214
  entropy T*S    EENTRO =        -0.00015938
  eigenvalues    EBANDS =         7.32035368
  atomic energy  EATOM  =      1163.23488769
  free energy    TOTEN  =      -110.29705632 eV

  energy without entropy =     -110.29689695  energy(sigma->0) =     -110.29697663

  average scaling for gradient   1.4579

 average (electrostatic) potential at core
  the test charge radii are     0.7672  0.9892
  (the norm of the test charge is              1.0000)
       1 -26.9741       2 -26.9739       3 -26.9740       4 -26.9740       5 -26.9741
       6 -26.9739       7 -27.2093       8 -27.2094       9 -27.2093      10 -27.2093
      11 -27.2093      12 -27.2093      13 -84.9176      14 -84.9177      15 -86.1357

 E-fermi :   7.9010     XC(G=0): -11.7538     alpha+bet :-14.7384

 Fermi energy:         7.9010070397

 k-point     1 :       0.0000    0.0000    0.0000
  band No.  band energies     occupation
      1      -9.7283      2.00000
      2      -5.1981      2.00000
      3      -5.1981      2.00000
      4      -4.8554      2.00000
      5      -4.7251      2.00000
      6      -2.7249      2.00000
      7      -2.7249      2.00000
      8      -2.7169      2.00000
      9      -1.2235      2.00000
     10      -0.8850      2.00000
     11      -0.8850      2.00000
     12       0.3681      2.00000
     13       0.4301      2.00000
     14       1.1460      2.00000
     15       1.1460      2.00000
     16       3.0561      2.00000
     17       3.0561      2.00000
     18       3.1563      2.00000
     19       4.0509      2.00000
     20       4.7922      2.00000
     21       4.7922      2.00000
     22       5.7025      2.00000
     23       5.7025      2.00000
     24       8.2927      0.00000
     25       9.2137      0.00000
     26       9.3498      0.00000
     27       9.3498      0.00000
     28      10.2637      0.00000
     29      10.2637      0.00000
     30      11.4912      0.00000
     31      12.3002      0.00000
     32      12.3750      0.00000
     33      12.7541      0.00000
     34      12.8269      0.00000
     35      12.9494      0.00000
     36      12.9632      0.00000

[...]

 k-point    44 :      -0.4286    0.4286    0.4286
  band No.  band energies     occupation
      1      -9.0889      2.00000
      2      -6.3566      2.00000
      3      -5.9086      2.00000
      4      -5.5779      2.00000
      5      -4.4409      2.00000
      6      -4.1013      2.00000
      7      -2.2843      2.00000
      8      -1.9417      2.00000
      9      -0.8238      2.00000
     10      -0.6712      2.00000
     11      -0.1539      2.00000
     12       1.2446      2.00000
     13       1.8567      2.00000
     14       2.0493      2.00000
     15       3.2501      2.00000
     16       3.3814      2.00000
     17       3.4929      2.00000
     18       3.6778      2.00000
     19       3.8009      2.00000
     20       3.8636      2.00000
     21       4.7261      2.00000
     22       5.0757      2.00000
     23       5.2893      2.00000
     24       6.3489      2.00000
     25       8.3622      0.00000
     26       8.9768      0.00000
     27       9.0190      0.00000
     28       9.1897      0.00000
     29       9.2760      0.00000
     30       9.2844      0.00000
     31      10.0141      0.00000
     32      10.7755      0.00000
     33      11.2471      0.00000
     34      11.2764      0.00000
     35      12.1472      0.00000
     36      12.4896      0.00000

 soft charge-density along one line, spin component           1
         0         1         2         3         4         5         6         7         8         9
 total charge-density along one line

------------------------ aborting loop because EDIFF is reached ----------------------------------------

  FREE ENERGIE OF THE ION-ELECTRON SYSTEM (eV)
  free  energy   TOTEN  =      -110.29705632 eV

  energy  without entropy=     -110.29689695  energy(sigma->0) =     -110.29697663

 writing wavefunctions