 vasp.6.2.0 18Jan21 (build Jan 05 2022 15:41:44) complex

 executed on             LinuxIFC date 2025.05.07  17:28:04

 INCAR:
   SYSTEM = routine with relax: pwdword
   ICHARG = 2
   NPAR = 6
   KPAR = 2
   NCORE = 2
   ADDGRID = T
   PREC = Acc
   ENCUT = 600
   METAGGA = R2SCAN
   LASPH = .TRUE.
   LMIXTAU = .FALSE.
   ALGO = A
   EDIFF = 1E-9
   NELM = 100
   NELMIN = 6
   IALGO = 38
   LREAL = F
   NSW = 0
   ISIF = -1
   ISMEAR = 0
   SIGMA = 0.02

 POTCAR:    PAW_PBE B 06Sep2000
 POTCAR:    PAW_PBE Mo_sv 02Feb2006
 POTCAR:    PAW_PBE Si 05Jan2001
|           W    W    AA    RRRRR   N    N  II  N    N   GGGG   !!!           |
|           W    W   A  A   R    R  NN   N  II  NN   N  G    G  !!!           |
|           W    W  A    A  R    R  N N  N  II  N N  N  G       !!!           |
|           W WW W  AAAAAA  RRRRR   N  N N  II  N  N N  G  GGG   !            |
|           WW  WW  A    A  R   R   N   NN  II  N   NN  G    G                |
|           W    W  A    A  R    R  N    N  II  N    N   GGGG   !!!           |
|     For optimal performance we recommend to set                             |
|       NCORE = 2 up to number-of-cores-per-socket                            |
|     This setting can greatly improve the performance of VASP for DFT.       |
|     The default, NCORE=1 might be grossly inefficient on modern             |
|     multi-core architectures or massively parallel machines. Do your        |
|     Unfortunately you need to use the default for GW and RPA                |
|     calculations (for HF NCORE is supported but not extensively tested      |
|     yet).                                                                   |

 POTCAR:    PAW_PBE B 06Sep2000
   VRHFIN =B: s2p1

   TITEL  = PAW_PBE B 06Sep2000
   POMASS =   10.811; ZVAL   =    3.000    mass and valenz
   ENMAX  =  318.614; ENMIN  =  238.960 eV

 POTCAR:    PAW_PBE Mo_sv 02Feb2006
   VRHFIN =Mo: 4p5s4d

   TITEL  = PAW_PBE Mo_sv 02Feb2006
   POMASS =   95.940; ZVAL   =   14.000    mass and valenz
   ENMAX  =  242.676; ENMIN  =  182.007 eV

 POTCAR:    PAW_PBE Si 05Jan2001
   VRHFIN =Si: s2p2

   TITEL  = PAW_PBE Si 05Jan2001
   POMASS =   28.085; ZVAL   =    4.000    mass and valenz
   ENMAX  =  245.345; ENMIN  =  184.009 eV

  PAW_PBE B 06Sep2000                   :
  PAW_PBE Mo_sv 02Feb2006               :
  PAW_PBE Si 05Jan2001                  :

 POSCAR: EA121
  positions in direct lattice

 METAGGA = R2SCA    LMAXTAU =  6    LMIXTAU =  F

 ion  position               nearest neighbor table
   1  0.750  0.250  0.500-   6 2.14   8 2.14   7 2.14   3 2.14
   2  0.250  0.750  0.500-   6 2.14   8 2.14   3 2.14   7 2.14
   3  0.500  0.000  0.000-   4 2.14   5 2.14   1 2.14   2 2.14  10 2.99   9 2.99  10 2.99   9 2.99
                             8 3.02   8 3.02   6 3.02   6 3.02
   4  0.250  0.250  0.000-   9 2.09  10 2.09   3 2.14   7 2.14   8 2.14   6 2.14
   5  0.750  0.750  0.000-   9 2.09  10 2.09   3 2.14   7 2.14   6 2.14   8 2.14
   6  0.000  0.000  0.500-   1 2.14   2 2.14   4 2.14   5 2.14   9 2.99   9 2.99  10 2.99  10 2.99
                             7 3.02   7 3.02   3 3.02   3 3.02
   7  0.000  0.500  0.000-   4 2.14   5 2.14   2 2.14   1 2.14  10 2.99   9 2.99   9 2.99  10 2.99
                             8 3.02   6 3.02   6 3.02   8 3.02
   8  0.500  0.500  0.500-   1 2.14   2 2.14   5 2.14   4 2.14  10 2.99  10 2.99   9 2.99   9 2.99
                             7 3.02   3 3.02   7 3.02   3 3.02
   9  0.000  0.000  0.000-   4 2.09   5 2.09   3 2.99   6 2.99   7 2.99   6 2.99   7 2.99   3 2.99
                             8 2.99   8 2.99
  10  0.500  0.500  0.000-   4 2.09   5 2.09   3 2.99   7 2.99   8 2.99   8 2.99   3 2.99   7 2.99
                             6 2.99   6 2.99

  LATTYP: Found a body centered tetragonal cell.
 ALAT       =     6.0483930467
 C/A-ratio  =     1.3796954189

  Lattice vectors:

 A1 = (   5.2164477067,   0.0000000000,  -2.9137015675)
 A2 = (  -1.7965534329,   4.8973178822,  -2.9137015675)
 A3 = (   0.0000000000,   0.0000000000,   5.9750300000)

Analysis of symmetry for initial positions (statically):
 Subroutine PRICEL returns following result:

  LATTYP: Found a simple tetragonal cell.
 ALAT       =     4.2768536164
 C/A-ratio  =     0.9755933832

[...]

   2 primitive cells build up your supercell.

 Routine SETGRP: Setting up the symmetry group for a
 body centered tetragonal supercell.

 Subroutine GETGRP returns: Found 16 space group operations
 (whereof 16 operations were pure point group operations)
 out of a pool of 16 trial point group operations.

The static configuration has the point symmetry D_4h.

Analysis of symmetry for dynamics (positions and initial velocities):
 Subroutine PRICEL returns following result:

  LATTYP: Found a simple tetragonal cell.
 ALAT       =     4.2768536164
 C/A-ratio  =     0.9755933832

  Lattice vectors:

 A1 = (  -3.5065005698,   2.4486589411,   0.0000000000)
 A2 = (   1.7099471369,   2.4486589411,   3.0613284325)
 A3 = (   1.7099471369,   2.4486589411,  -2.9137015675)

   2 primitive cells build up your supercell.

 Routine SETGRP: Setting up the symmetry group for a
 body centered tetragonal supercell.

 Subroutine GETGRP returns: Found 16 space group operations
 (whereof 16 operations were pure point group operations)
 out of a pool of 16 trial point group operations.

The dynamic configuration has the point symmetry D_4h.

 Subroutine INISYM returns: Found 16 space group operations
 (whereof 16 operations are pure point group operations),
 and found     2 'primitive' translations

                                     Primitive cell

  volume of cell :      76.3209

  direct lattice vectors                    reciprocal lattice vectors
    -3.506500570  2.448658941  0.000000000    -0.191701337  0.133868848  0.000000000
     1.709947137  2.448658941  3.061328432     0.093482457  0.133867679  0.167363176
     1.709947137  2.448658941 -2.913701568     0.098218880  0.140650277 -0.167363176

  length of vectors
     4.276853616  4.276865861  4.172470089     0.233816747  0.233816078  0.239666188

  position of ions in fractional coordinates (direct lattice)
     0.500000000  0.500000000  0.500000000
     0.500000000  1.000000000  0.500000000
     0.000000000  1.000000000  0.500000000
     0.000000000  0.500000000  0.500000000
     0.000000000  0.000000000  0.000000000

  ion indices of the primitive-cell ions
   primitive index   ion index
                 1           1
                 2           3
                 3           4
                 4           6
                 5           9

 KPOINTS: EA

Automatic generation of k-mesh.
 Grid dimensions read from file:
 generate k-points for:    7    7    8

 Generating k-lattice:

  Cartesian coordinates                     Fractional coordinates (reciprocal lattice)
     0.027385905  0.010046365  0.000000000     0.142857143  0.000000000  0.000000000
     0.000000000  0.029170486  0.000000000     0.000000000  0.142857143  0.000000000
     0.011685307  0.016733460  0.020920397    -0.000000000 -0.000000000  0.125000000

  Length of vectors
     0.029170486  0.029170486  0.029227010

  Shift w.r.t. Gamma in fractional coordinates (k-lattice)
     0.000000000  0.000000000  0.000000000

 WARNING: IBZKPT: internal override: KBLOWUP is changed to .FALSE.
      ... skipping the blow-up phase ...

 Subroutine IBZKPT returns following result:

 Found    116 irreducible k-points:

 Following reciprocal coordinates:
            Coordinates               Weight
  0.000000  0.000000  0.000000      1.000000
  0.142857  0.000000  0.000000      4.000000
  0.285714  0.000000  0.000000      4.000000
  0.428571  0.000000  0.000000      4.000000
  0.142857  0.142857  0.000000      2.000000
  0.285714  0.142857  0.000000      4.000000
  0.428571  0.142857  0.000000      4.000000
 -0.428571  0.142857  0.000000      4.000000
 -0.285714  0.142857  0.000000      4.000000
 -0.142857  0.142857  0.000000      2.000000
  0.285714  0.285714  0.000000      2.000000
  0.428571  0.285714  0.000000      4.000000
 -0.428571  0.285714  0.000000      4.000000
 -0.285714  0.285714  0.000000      2.000000
  0.428571  0.428571  0.000000      2.000000
 -0.428571  0.428571  0.000000      2.000000
 -0.000000  0.000000  0.125000      2.000000
  0.142857  0.000000  0.125000      4.000000
  0.285714  0.000000  0.125000      4.000000
  0.428571  0.000000  0.125000      4.000000
 -0.428571 -0.000000  0.125000      4.000000
 -0.285714 -0.000000  0.125000      4.000000
 -0.142857 -0.000000  0.125000      4.000000
  0.142857  0.142857  0.125000      2.000000
  0.285714  0.142857  0.125000      4.000000
  0.428571  0.142857  0.125000      4.000000
 -0.428571  0.142857  0.125000      4.000000
 -0.285714  0.142857  0.125000      4.000000
 -0.142857  0.142857  0.125000      4.000000
  0.285714  0.285714  0.125000      2.000000
  0.428571  0.285714  0.125000      4.000000
 -0.428571  0.285714  0.125000      4.000000
 -0.285714  0.285714  0.125000      4.000000
 -0.142857  0.285714  0.125000      4.000000
  0.428571  0.428571  0.125000      2.000000
 -0.428571  0.428571  0.125000      4.000000
 -0.285714  0.428571  0.125000      4.000000
 -0.142857  0.428571  0.125000      4.000000
 -0.428571 -0.428571  0.125000      2.000000
 -0.285714 -0.428571  0.125000      4.000000
 -0.142857 -0.428571  0.125000      4.000000
 -0.285714 -0.285714  0.125000      2.000000
 -0.142857 -0.285714  0.125000      4.000000
 -0.142857 -0.142857  0.125000      2.000000
 -0.000000  0.000000  0.250000      2.000000
  0.142857  0.000000  0.250000      4.000000
  0.285714  0.000000  0.250000      4.000000
  0.428571  0.000000  0.250000      4.000000
 -0.428571 -0.000000  0.250000      4.000000
 -0.285714 -0.000000  0.250000      4.000000
 -0.142857  0.000000  0.250000      4.000000
  0.142857  0.142857  0.250000      2.000000
  0.285714  0.142857  0.250000      4.000000
  0.428571  0.142857  0.250000      4.000000
 -0.428571  0.142857  0.250000      4.000000
 -0.285714  0.142857  0.250000      4.000000
 -0.142857  0.142857  0.250000      4.000000
  0.285714  0.285714  0.250000      2.000000
  0.428571  0.285714  0.250000      4.000000
 -0.428571  0.285714  0.250000      4.000000
[...]
  0.142857  0.000000  0.500000      4.000000
  0.285714  0.000000  0.500000      4.000000
  0.428571  0.000000  0.500000      4.000000
  0.142857  0.142857  0.500000      2.000000
  0.285714  0.142857  0.500000      4.000000
  0.428571  0.142857  0.500000      4.000000
 -0.428571  0.142857  0.500000      4.000000
 -0.285714  0.142857  0.500000      4.000000
 -0.142857  0.142857  0.500000      2.000000
  0.285714  0.285714  0.500000      2.000000
  0.428571  0.285714  0.500000      4.000000
 -0.428571  0.285714  0.500000      4.000000
 -0.285714  0.285714  0.500000      2.000000
  0.428571  0.428571  0.500000      2.000000
 -0.428571  0.428571  0.500000      2.000000

 Following cartesian coordinates:
            Coordinates               Weight
  0.000000  0.000000  0.000000      1.000000
  0.027386  0.010046  0.000000      4.000000
  0.054772  0.020093  0.000000      4.000000
  0.082158  0.030139  0.000000      4.000000
[...]
  -0.28571429 -0.00000000  0.12500000       0.010
  -0.14285714 -0.00000000  0.12500000       0.010
   0.14285714  0.14285714  0.12500000       0.005
   0.28571429  0.14285714  0.12500000       0.010
   0.42857143  0.14285714  0.12500000       0.010
  -0.42857143  0.14285714  0.12500000       0.010
  -0.28571429  0.14285714  0.12500000       0.010
  -0.14285714  0.14285714  0.12500000       0.010
   0.28571429  0.28571429  0.12500000       0.005
   0.42857143  0.28571429  0.12500000       0.010
  -0.42857143  0.28571429  0.12500000       0.010
  -0.28571429  0.28571429  0.12500000       0.010
  -0.14285714  0.28571429  0.12500000       0.010
   0.42857143  0.42857143  0.12500000       0.005
  -0.42857143  0.42857143  0.12500000       0.010
  -0.28571429  0.42857143  0.12500000       0.010
  -0.14285714  0.42857143  0.12500000       0.010
  -0.42857143 -0.42857143  0.12500000       0.005
  -0.28571429 -0.42857143  0.12500000       0.010
  -0.14285714 -0.42857143  0.12500000       0.010
  -0.28571429 -0.28571429  0.12500000       0.005
  -0.14285714 -0.28571429  0.12500000       0.010
  -0.14285714 -0.14285714  0.12500000       0.005
  -0.00000000  0.00000000  0.25000000       0.005
   0.14285714  0.00000000  0.25000000       0.010
   0.28571429  0.00000000  0.25000000       0.010
   0.42857143  0.00000000  0.25000000       0.010
  -0.42857143 -0.00000000  0.25000000       0.010
  -0.28571429 -0.00000000  0.25000000       0.010
  -0.14285714  0.00000000  0.25000000       0.010
   0.14285714  0.14285714  0.25000000       0.005
   0.28571429  0.14285714  0.25000000       0.010
   0.42857143  0.14285714  0.25000000       0.010
  -0.42857143  0.14285714  0.25000000       0.010
  -0.28571429  0.14285714  0.25000000       0.010
  -0.14285714  0.14285714  0.25000000       0.010
   0.28571429  0.28571429  0.25000000       0.005
   0.42857143  0.28571429  0.25000000       0.010
  -0.42857143  0.28571429  0.25000000       0.010
[...]
   0.14285714  0.00000000  0.50000000       0.010
   0.28571429  0.00000000  0.50000000       0.010
   0.42857143  0.00000000  0.50000000       0.010
   0.14285714  0.14285714  0.50000000       0.005
   0.28571429  0.14285714  0.50000000       0.010
   0.42857143  0.14285714  0.50000000       0.010
  -0.42857143  0.14285714  0.50000000       0.010
  -0.28571429  0.14285714  0.50000000       0.010
  -0.14285714  0.14285714  0.50000000       0.005
   0.28571429  0.28571429  0.50000000       0.005
   0.42857143  0.28571429  0.50000000       0.010
  -0.42857143  0.28571429  0.50000000       0.010
  -0.28571429  0.28571429  0.50000000       0.005
   0.42857143  0.42857143  0.50000000       0.005
  -0.42857143  0.42857143  0.50000000       0.005

 position of ions in fractional coordinates (direct lattice)
   0.75000000  0.25000000  0.50000000
   0.25000000  0.75000000  0.50000000
   0.50000000  0.00000000  0.00000000
   0.25000000  0.25000000  0.00000000
   0.75000000  0.75000000  0.00000000
   0.00000000  0.00000000  0.50000000
   0.00000000  0.50000000  0.00000000
   0.50000000  0.50000000  0.50000000
   0.00000000  0.00000000  0.00000000
   0.50000000  0.50000000  0.00000000

 position of ions in cartesian coordinates  (Angst):
   3.46319742  1.22432947  0.07381343
  -0.04330315  3.67298841  0.07381343
   2.60822385  0.00000000 -1.45685078
   0.85497357  1.22432947 -1.45685078
   2.56492071  3.67298841 -4.37055235
   0.00000000  0.00000000  2.98751500
  -0.89827672  2.44865894 -1.45685078
   1.70994714  2.44865894  0.07381343
   0.00000000  0.00000000  0.00000000
   1.70994714  2.44865894 -2.91370157

 k-point   1 :   0.0000 0.0000 0.0000  plane waves:    5065
 k-point   2 :   0.1429 0.0000 0.0000  plane waves:    5062
 k-point   3 :   0.2857 0.0000 0.0000  plane waves:    5084
 k-point   4 :   0.4286 0.0000 0.0000  plane waves:    5095
 k-point   5 :   0.1429 0.1429 0.0000  plane waves:    5081
 k-point   6 :   0.2857 0.1429 0.0000  plane waves:    5099
 k-point   7 :   0.4286 0.1429 0.0000  plane waves:    5088
 k-point   8 :  -0.4286 0.1429 0.0000  plane waves:    5090
 k-point   9 :  -0.2857 0.1429 0.0000  plane waves:    5092
 k-point  10 :  -0.1429 0.1429 0.0000  plane waves:    5079
 k-point  11 :   0.2857 0.2857 0.0000  plane waves:    5104
 k-point  12 :   0.4286 0.2857 0.0000  plane waves:    5103
 k-point  13 :  -0.4286 0.2857 0.0000  plane waves:    5096
 k-point  14 :  -0.2857 0.2857 0.0000  plane waves:    5085
 k-point  15 :   0.4286 0.4286 0.0000  plane waves:    5093
 k-point  16 :  -0.4286 0.4286 0.0000  plane waves:    5081
 k-point  17 :  -0.0000 0.0000 0.1250  plane waves:    5083
 k-point  18 :   0.1429 0.0000 0.1250  plane waves:    5090
 k-point  19 :   0.2857 0.0000 0.1250  plane waves:    5089
 k-point  20 :   0.4286 0.0000 0.1250  plane waves:    5088
 k-point  21 :  -0.4286-0.0000 0.1250  plane waves:    5095
 k-point  22 :  -0.2857-0.0000 0.1250  plane waves:    5074
 k-point  23 :  -0.1429-0.0000 0.1250  plane waves:    5056
 k-point  24 :   0.1429 0.1429 0.1250  plane waves:    5098
 k-point  25 :   0.2857 0.1429 0.1250  plane waves:    5101
 k-point  26 :   0.4286 0.1429 0.1250  plane waves:    5107
 k-point  27 :  -0.4286 0.1429 0.1250  plane waves:    5100
 k-point  28 :  -0.2857 0.1429 0.1250  plane waves:    5087
 k-point  29 :  -0.1429 0.1429 0.1250  plane waves:    5100
 k-point  30 :   0.2857 0.2857 0.1250  plane waves:    5105
 k-point  31 :   0.4286 0.2857 0.1250  plane waves:    5102
 k-point  32 :  -0.4286 0.2857 0.1250  plane waves:    5093
 k-point  33 :  -0.2857 0.2857 0.1250  plane waves:    5087
 k-point  34 :  -0.1429 0.2857 0.1250  plane waves:    5093
 k-point  35 :   0.4286 0.4286 0.1250  plane waves:    5089
 k-point  36 :  -0.4286 0.4286 0.1250  plane waves:    5096
 k-point  37 :  -0.2857 0.4286 0.1250  plane waves:    5101
 k-point  38 :  -0.1429 0.4286 0.1250  plane waves:    5107
 k-point  39 :  -0.4286-0.4286 0.1250  plane waves:    5098
 k-point  40 :  -0.2857-0.4286 0.1250  plane waves:    5097
 k-point  41 :  -0.1429-0.4286 0.1250  plane waves:    5095
 k-point  42 :  -0.2857-0.2857 0.1250  plane waves:    5087
 k-point  43 :  -0.1429-0.2857 0.1250  plane waves:    5077
 k-point  44 :  -0.1429-0.1429 0.1250  plane waves:    5055
 k-point  45 :  -0.0000 0.0000 0.2500  plane waves:    5085
 k-point  46 :   0.1429 0.0000 0.2500  plane waves:    5092
 k-point  47 :   0.2857 0.0000 0.2500  plane waves:    5097
 k-point  48 :   0.4286 0.0000 0.2500  plane waves:    5100
 k-point  49 :  -0.4286-0.0000 0.2500  plane waves:    5096
 k-point  50 :  -0.2857-0.0000 0.2500  plane waves:    5081
 k-point  51 :  -0.1429 0.0000 0.2500  plane waves:    5083
 k-point  52 :   0.1429 0.1429 0.2500  plane waves:    5104
 k-point  53 :   0.2857 0.1429 0.2500  plane waves:    5110
 k-point  54 :   0.4286 0.1429 0.2500  plane waves:    5097
 k-point  55 :  -0.4286 0.1429 0.2500  plane waves:    5094
 k-point  56 :  -0.2857 0.1429 0.2500  plane waves:    5099
 k-point  57 :  -0.1429 0.1429 0.2500  plane waves:    5086
 k-point  58 :   0.2857 0.2857 0.2500  plane waves:    5109
 k-point  59 :   0.4286 0.2857 0.2500  plane waves:    5107
 k-point  60 :  -0.4286 0.2857 0.2500  plane waves:    5100
[...]
 k-point 102 :   0.1429 0.0000 0.5000  plane waves:    5096
 k-point 103 :   0.2857 0.0000 0.5000  plane waves:    5094
 k-point 104 :   0.4286 0.0000 0.5000  plane waves:    5086
 k-point 105 :   0.1429 0.1429 0.5000  plane waves:    5092
 k-point 106 :   0.2857 0.1429 0.5000  plane waves:    5095
 k-point 107 :   0.4286 0.1429 0.5000  plane waves:    5099
 k-point 108 :  -0.4286 0.1429 0.5000  plane waves:    5106
 k-point 109 :  -0.2857 0.1429 0.5000  plane waves:    5110
 k-point 110 :  -0.1429 0.1429 0.5000  plane waves:    5090
 k-point 111 :   0.2857 0.2857 0.5000  plane waves:    5091
 k-point 112 :   0.4286 0.2857 0.5000  plane waves:    5096
 k-point 113 :  -0.4286 0.2857 0.5000  plane waves:    5103
 k-point 114 :  -0.2857 0.2857 0.5000  plane waves:    5096
 k-point 115 :   0.4286 0.4286 0.5000  plane waves:    5110
 k-point 116 :  -0.4286 0.4286 0.5000  plane waves:    5102

 maximum and minimum number of plane-waves per node :      2582     2499

 maximum number of plane-waves:      5115
 maximum index in each direction:
   IXMAX=   12   IYMAX=   12   IZMAX=   11
   IXMIN=  -12   IYMIN=  -12   IZMIN=  -12

 parallel 3D FFT for wavefunctions:
    minimum data exchange during FFTs selected (reduces bandwidth)
 parallel 3D FFT for charge:
    minimum data exchange during FFTs selected (reduces bandwidth)

 Broyden mixing: mesh for mixing (old mesh)
   NGX = 23   NGY = 23   NGZ = 23
  (NGX  = 96   NGY  = 96   NGZ  = 96)
  gives a total of  12167 points

 initial charge density was supplied:
 charge density of overlapping atoms calculated
 number of electron      98.0000000 magnetization
 keeping initial charge density in first step

 Maximum index for augmentation-charges        20707 (set IRDMAX)

 First call to EWALD:  gamma=   0.332
 Maximum number of real-space cells 3x 3x 3
 Maximum number of reciprocal cells 3x 3x 3

--------------------------------------- Iteration      1(   1)  ---------------------------------------

 eigenvalue-minimisations  : 13992
 total energy-change (2. order) : 0.1170978E+04  (-0.6791668E+04)
 number of electron      98.0000000 magnetization
 augmentation part       98.0000000 magnetization

 Free energy of the ion-electron system (eV)
  alpha Z        PSCENC =       547.32380647
  Ewald energy   TEWEN  =     -7788.26774153
  -Hartree energ DENC   =     -3617.49616495
  -exchange      EXHF   =         0.00000000
  -V(xc)+E(xc)   XCENC  =       472.34112687
  PAW double counting   =      9166.97638771    -9126.13493418
  entropy T*S    EENTRO =        -0.00062808
  eigenvalues    EBANDS =        -5.93094327
  atomic energy  EATOM  =     11522.16744521
  free energy    TOTEN  =      1170.97835425 eV

  energy without entropy =     1170.97898233  energy(sigma->0) =     1170.97866829

[...]

 eigenvalue-minimisations  : 15336
 total energy-change (2. order) :-0.1323904E+04  (-0.1287685E+04)
 number of electron      98.0000000 magnetization
 augmentation part       98.0000000 magnetization

[...]

 eigenvalue-minimisations  :     0
 total energy-change (2. order) : 0.6192567E+02  (-0.1492829E+02)
 number of electron      98.0000001 magnetization
 augmentation part       14.5329250 magnetization

[...]

 eigenvalue-minimisations  :     0
 total energy-change (2. order) :-0.2170054E-08  ( 0.4919646E-08)
 number of electron      98.0000001 magnetization
 augmentation part       14.5682219 magnetization

[...]

--------------------------------------- Iteration      1(  46)  ---------------------------------------

 eigenvalue-minimisations  :     0
 total energy-change (2. order) :-0.3074092E-09  (-0.1594847E-09)
 number of electron      98.0000001 magnetization
 augmentation part       14.5682216 magnetization

 Free energy of the ion-electron system (eV)
  alpha Z        PSCENC =       547.32380647
  Ewald energy   TEWEN  =     -7788.26774153
  -Hartree energ DENC   =     -3598.05453880
  -exchange      EXHF   =         0.00000000
  -V(xc)+E(xc)   XCENC  =       486.63748831
  PAW double counting   =     17093.27107693   -17069.74119193
  entropy T*S    EENTRO =        -0.00114191
  eigenvalues    EBANDS =     -1354.59073643
  atomic energy  EATOM  =     11522.16744521
  free energy    TOTEN  =      -161.25553367 eV

  energy without entropy =     -161.25439176  energy(sigma->0) =     -161.25496271

  average scaling for gradient   0.7352

 average (electrostatic) potential at core
  the test charge radii are     0.7672  1.0818  0.9892
  (the norm of the test charge is              1.0000)
       1 -24.0768       2 -24.0768       3 -77.2403       4 -76.6247       5 -76.6247
       6 -77.2402       7 -77.2403       8 -77.2402       9 -83.4309      10 -83.4309

 E-fermi :   9.4810     XC(G=0): -12.4955     alpha+bet :-16.8783

 Fermi energy:         9.4810383972

 k-point     1 :       0.0000    0.0000    0.0000
  band No.  band energies     occupation
      1     -54.4026      2.00000
      2     -53.5336      2.00000
      3     -53.5335      2.00000
      4     -53.4607      2.00000
      5     -53.3737      2.00000
      6     -52.3928      2.00000
      7     -30.4512      2.00000
      8     -30.4510      2.00000
      9     -27.6691      2.00000
     10     -27.6479      2.00000
     11     -27.6300      2.00000
     12     -27.3259      2.00000
     13     -27.3258      2.00000
     14     -27.1570      2.00000
     15     -27.1340      2.00000
     16     -26.7880      2.00000
     17     -26.7880      2.00000
     18     -26.7825      2.00000
     19     -26.7824      2.00000
     20     -26.7155      2.00000
     21     -26.5407      2.00000
     22     -26.2075      2.00000
     23     -23.9628      2.00000
     24     -23.9627      2.00000
     25      -1.1524      2.00000
     26       0.6788      2.00000
     27       1.8681      2.00000
     28       2.0030      2.00000
     29       3.0885      2.00000
     30       3.5512      2.00000
     31       3.5513      2.00000
     32       3.7673      2.00000
     33       3.9329      2.00000
     34       3.9329      2.00000
     35       4.1804      2.00000
     36       4.6174      2.00000
     37       4.6174      2.00000
     38       4.6908      2.00000
     39       5.1223      2.00000
     40       8.0686      2.00000
     41       8.0686      2.00000
     42       8.2775      2.00000
     43       8.6731      2.00000
     44       8.8972      2.00000
     45       8.9085      2.00000
     46       9.0677      2.00000
     47       9.1161      2.00000
     48       9.1161      2.00000
     49       9.6973      0.00000
     50       9.6974      0.00000
     51       9.7076      0.00000
     52       9.7076      0.00000
     53       9.7412      0.00000
     54      10.1023      0.00000
     55      10.6960      0.00000
     56      11.2545      0.00000
     57      11.2546      0.00000
     58      11.5861      0.00000
     59      12.1946      0.00000
     60      12.2245      0.00000

[...]

 k-point   116 :      -0.4286    0.4286    0.5000
  band No.  band energies     occupation
      1     -54.3897      2.00000
      2     -53.6279      2.00000
      3     -53.5338      2.00000
      4     -53.4623      2.00000
      5     -53.2783      2.00000
      6     -52.4050      2.00000
      7     -30.4478      2.00000
      8     -30.3814      2.00000
      9     -28.1911      2.00000
     10     -27.6834      2.00000
     11     -27.6503      2.00000
     12     -27.3573      2.00000
     13     -27.1374      2.00000
     14     -27.1036      2.00000
     15     -26.7901      2.00000
     16     -26.7885      2.00000
     17     -26.7714      2.00000
     18     -26.7593      2.00000
     19     -26.7368      2.00000
     20     -26.7265      2.00000
     21     -26.5405      2.00000
     22     -26.2361      2.00000
     23     -24.0611      2.00000
     24     -23.9642      2.00000
     25      -0.0680      2.00000
     26       0.4420      2.00000
     27       1.8209      2.00000
     28       1.9782      2.00000
     29       2.6013      2.00000
     30       2.6454      2.00000
     31       3.1074      2.00000
     32       3.1797      2.00000
     33       3.5315      2.00000
     34       3.7028      2.00000
     35       3.8288      2.00000
     36       5.3376      2.00000
     37       5.8773      2.00000
     38       5.9171      2.00000
     39       5.9598      2.00000
     40       6.0131      2.00000
     41       6.7315      2.00000
     42       6.8630      2.00000
     43       8.2455      2.00000
     44       8.5734      2.00000
     45       8.9099      2.00000
     46       9.3643      2.00000
     47       9.4206      1.99998
     48       9.4337      1.99918
     49       9.4420      1.99424
     50       9.6773      0.00000
     51       9.9792      0.00000
     52      10.0424      0.00000
     53      10.3403      0.00000
     54      10.4292      0.00000
     55      10.7995      0.00000
     56      11.0424      0.00000
     57      11.9983      0.00000
     58      12.0073      0.00000
     59      12.2009      0.00000
     60      12.8983      0.00000

 soft charge-density along one line, spin component           1
         0         1         2         3         4         5         6         7         8         9
 total charge-density along one line

------------------------ aborting loop because EDIFF is reached ----------------------------------------

  FREE ENERGIE OF THE ION-ELECTRON SYSTEM (eV)
  free  energy   TOTEN  =      -161.25553367 eV

  energy  without entropy=     -161.25439176  energy(sigma->0) =     -161.25496271

 writing wavefunctions