 vasp.6.2.0 18Jan21 (build Jan 05 2022 15:41:44) complex

 executed on             LinuxIFC date 2025.05.07  19:45:19

 INCAR:
   SYSTEM = routine with relax: pwdword
   ICHARG = 2
   NPAR = 6
   KPAR = 2
   NCORE = 2
   ADDGRID = T
   PREC = Acc
   ENCUT = 600
   METAGGA = R2SCAN
   LASPH = .TRUE.
   LMIXTAU = .FALSE.
   ALGO = A
   EDIFF = 1E-9
   NELM = 100
   NELMIN = 6
   IALGO = 38
   LREAL = F
   NSW = 0
   ISIF = -1
   ISMEAR = 0
   SIGMA = 0.02

 POTCAR:    PAW_PBE B 06Sep2000
 POTCAR:    PAW_PBE Mo_sv 02Feb2006
 POTCAR:    PAW_PBE Si 05Jan2001
|           W    W    AA    RRRRR   N    N  II  N    N   GGGG   !!!           |
|           W    W   A  A   R    R  NN   N  II  NN   N  G    G  !!!           |
|           W    W  A    A  R    R  N N  N  II  N N  N  G       !!!           |
|           W WW W  AAAAAA  RRRRR   N  N N  II  N  N N  G  GGG   !            |
|           WW  WW  A    A  R   R   N   NN  II  N   NN  G    G                |
|           W    W  A    A  R    R  N    N  II  N    N   GGGG   !!!           |
|     For optimal performance we recommend to set                             |
|       NCORE = 2 up to number-of-cores-per-socket                            |
|     This setting can greatly improve the performance of VASP for DFT.       |
|     The default, NCORE=1 might be grossly inefficient on modern             |
|     multi-core architectures or massively parallel machines. Do your        |
|     Unfortunately you need to use the default for GW and RPA                |
|     calculations (for HF NCORE is supported but not extensively tested      |
|     yet).                                                                   |

 POTCAR:    PAW_PBE B 06Sep2000
   VRHFIN =B: s2p1

   TITEL  = PAW_PBE B 06Sep2000
   POMASS =   10.811; ZVAL   =    3.000    mass and valenz
   ENMAX  =  318.614; ENMIN  =  238.960 eV

 POTCAR:    PAW_PBE Mo_sv 02Feb2006
   VRHFIN =Mo: 4p5s4d

   TITEL  = PAW_PBE Mo_sv 02Feb2006
   POMASS =   95.940; ZVAL   =   14.000    mass and valenz
   ENMAX  =  242.676; ENMIN  =  182.007 eV

 POTCAR:    PAW_PBE Si 05Jan2001
   VRHFIN =Si: s2p2

   TITEL  = PAW_PBE Si 05Jan2001
   POMASS =   28.085; ZVAL   =    4.000    mass and valenz
   ENMAX  =  245.345; ENMIN  =  184.009 eV

  PAW_PBE B 06Sep2000                   :
  PAW_PBE Mo_sv 02Feb2006               :
  PAW_PBE Si 05Jan2001                  :

 POSCAR: EA194
  positions in direct lattice

 METAGGA = R2SCA    LMAXTAU =  6    LMIXTAU =  F

 ion  position               nearest neighbor table
   1  0.260  0.760  0.291-  12 1.46  14 1.59   5 2.08
   2  0.740  0.240  0.709-  10 1.46  14 1.59   6 2.08
   3  0.760  0.469  0.500-  10 1.46  13 1.59   7 2.08
   4  0.240  0.531  0.500-  12 1.46  13 1.59   8 2.08
   5  0.469  0.969  0.709-  12 1.46  14 1.59   1 2.08
   6  0.531  0.031  0.291-  10 1.46  14 1.59   2 2.08
   7  0.969  0.260  0.500-  10 1.46  13 1.59   3 2.08
   8  0.031  0.740  0.500-  12 1.46  13 1.59   4 2.08
   9  0.250  0.250  0.000-
  10  0.750  0.250  0.500-   6 1.46   3 1.46   7 1.46   2 1.46  13 2.23  14 2.23
  11  0.750  0.750  0.000-
  12  0.250  0.750  0.500-   5 1.46   4 1.46   8 1.46   1 1.46  13 2.23  14 2.23
  13  0.000  0.500  0.500-   3 1.59   4 1.59   7 1.59   8 1.59  10 2.23  12 2.23
  14  0.500  0.000  0.500-   1 1.59   2 1.59   5 1.59   6 1.59  10 2.23  12 2.23

  Warning from LATTYP: Got some problem with cell dimensions!
  Tried to take original basis but could not verify dimensions!
  LATTYP: Found a base centered monoclinic cell.
 ALAT       =     8.9170806267
 B/A-ratio  =     1.1146884555
 C/A-ratio  =     0.7487429181
 COS(beta)  =    -0.6677748430

  Lattice vectors:

 A1 = (  -5.9760919144,   0.0000000000,   2.9773559277)
 A2 = (   2.2900932507,  -5.5198865453,   2.9773559277)
 A3 = (   3.6859986638,   5.5198865453,   0.7219881446)

Analysis of symmetry for initial positions (statically):
 Subroutine PRICEL returns:
 Original cell was already a primitive cell.

 Routine SETGRP: Setting up the symmetry group for a
 base centered monoclinic supercell.

 Subroutine GETGRP returns: Found  4 space group operations
 (whereof  2 operations were pure point group operations)
 out of a pool of  4 trial point group operations.

The static configuration has the point symmetry S_2 .
 The point group associated with its full space group is C_2h.

Analysis of symmetry for dynamics (positions and initial velocities):
 Subroutine PRICEL returns:
 Original cell was already a primitive cell.

 Routine SETGRP: Setting up the symmetry group for a
 base centered monoclinic supercell.

 Subroutine GETGRP returns: Found  4 space group operations
 (whereof  2 operations were pure point group operations)
 out of a pool of  4 trial point group operations.

The dynamic configuration has the point symmetry S_2 .
 The point group associated with its full space group is C_2h.

 Subroutine INISYM returns: Found  4 space group operations
 (whereof  2 operations are pure point group operations),
 and found     1 'primitive' translations

                                     Primitive cell

  volume of cell :     220.2466

  direct lattice vectors                    reciprocal lattice vectors
     5.976091914  0.000000000 -2.977355928     0.167333437  0.069423379  0.000000000
    -2.290093251  5.519886545 -2.977355928     0.000000000  0.181163144  0.000000000
     0.000000000  0.000000000  6.676700000     0.074619378  0.111744615  0.149774589

  length of vectors
     6.676700000  6.676700000  6.676700000     0.181163144  0.181163144  0.201214657

  position of ions in fractional coordinates (direct lattice)
     0.260200000  0.760200000  0.291020000
     0.739800000  0.239800000  0.708980000
     0.760200000  0.469180000  0.500000000
     0.239800000  0.530820000  0.500000000
     0.469180000  0.969180000  0.708980000
     0.530820000  0.030820000  0.291020000
     0.969180000  0.260200000  0.500000000
     0.030820000  0.739800000  0.500000000
     0.250000000  0.250000000  0.000000000
     0.750000000  0.250000000  0.500000000
     0.750000000  0.750000000  0.000000000
     0.250000000  0.750000000  0.500000000
     0.000000000  0.500000000  0.500000000
     0.500000000  0.000000000  0.500000000

  ion indices of the primitive-cell ions
   primitive index   ion index
                 1           1
                 2           2
                 3           3
                 4           4
                 5           5
                 6           6
                 7           7
                 8           8
                 9           9
                10          10
                11          11
                12          12
                13          13
                14          14

 KPOINTS: EA

Automatic generation of k-mesh.
 Grid dimensions read from file:
 generate k-points for:    7    7    7

 Generating k-lattice:

  Cartesian coordinates                     Fractional coordinates (reciprocal lattice)
     0.023904777  0.009917626  0.000000000     0.142857143  0.000000000  0.000000000
     0.000000000  0.025880449  0.000000000     0.000000000  0.142857143  0.000000000
     0.010659911  0.015963516  0.021396370     0.000000000 -0.000000000  0.142857143

  Length of vectors
     0.025880449  0.025880449  0.028744951

  Shift w.r.t. Gamma in fractional coordinates (k-lattice)
     0.000000000  0.000000000  0.000000000

 Subroutine IBZKPT returns following result:

 Found    100 irreducible k-points:

 Following reciprocal coordinates:
            Coordinates               Weight
  0.000000  0.000000  0.000000      1.000000
  0.142857  0.000000  0.000000      4.000000
  0.285714  0.000000  0.000000      4.000000
  0.428571  0.000000  0.000000      4.000000
  0.142857  0.142857  0.000000      2.000000
  0.285714  0.142857  0.000000      4.000000
  0.428571  0.142857  0.000000      4.000000
 -0.428571  0.142857  0.000000      4.000000
 -0.285714  0.142857  0.000000      4.000000
 -0.142857  0.142857  0.000000      2.000000
  0.285714  0.285714  0.000000      2.000000
  0.428571  0.285714  0.000000      4.000000
 -0.428571  0.285714  0.000000      4.000000
 -0.285714  0.285714  0.000000      2.000000
  0.428571  0.428571  0.000000      2.000000
 -0.428571  0.428571  0.000000      2.000000
  0.000000  0.000000  0.142857      2.000000
  0.142857  0.000000  0.142857      4.000000
  0.285714 -0.000000  0.142857      4.000000
  0.428571 -0.000000  0.142857      4.000000
 -0.428571 -0.000000  0.142857      4.000000
 -0.285714  0.000000  0.142857      4.000000
 -0.142857  0.000000  0.142857      4.000000
  0.142857  0.142857  0.142857      2.000000
  0.285714  0.142857  0.142857      4.000000
  0.428571  0.142857  0.142857      4.000000
 -0.428571  0.142857  0.142857      4.000000
 -0.285714  0.142857  0.142857      4.000000
 -0.142857  0.142857  0.142857      4.000000
  0.285714  0.285714  0.142857      2.000000
  0.428571  0.285714  0.142857      4.000000
 -0.428571  0.285714  0.142857      4.000000
 -0.285714  0.285714  0.142857      4.000000
 -0.142857  0.285714  0.142857      4.000000
  0.428571  0.428571  0.142857      2.000000
 -0.428571  0.428571  0.142857      4.000000
 -0.285714  0.428571  0.142857      4.000000
 -0.142857  0.428571  0.142857      4.000000
 -0.428571 -0.428571  0.142857      2.000000
 -0.285714 -0.428571  0.142857      4.000000
 -0.142857 -0.428571  0.142857      4.000000
 -0.285714 -0.285714  0.142857      2.000000
 -0.142857 -0.285714  0.142857      4.000000
 -0.142857 -0.142857  0.142857      2.000000
  0.000000 -0.000000  0.285714      2.000000
  0.142857  0.000000  0.285714      4.000000
  0.285714 -0.000000  0.285714      4.000000
  0.428571 -0.000000  0.285714      4.000000
 -0.428571 -0.000000  0.285714      4.000000
 -0.285714 -0.000000  0.285714      4.000000
 -0.142857  0.000000  0.285714      4.000000
  0.142857  0.142857  0.285714      2.000000
  0.285714  0.142857  0.285714      4.000000
  0.428571  0.142857  0.285714      4.000000
 -0.428571  0.142857  0.285714      4.000000
 -0.285714  0.142857  0.285714      4.000000
 -0.142857  0.142857  0.285714      4.000000
  0.285714  0.285714  0.285714      2.000000
  0.428571  0.285714  0.285714      4.000000
 -0.428571  0.285714  0.285714      4.000000
[...]
  0.285714  0.285714  0.428571      2.000000
  0.428571  0.285714  0.428571      4.000000
 -0.428571  0.285714  0.428571      4.000000
 -0.285714  0.285714  0.428571      4.000000
 -0.142857  0.285714  0.428571      4.000000
  0.428571  0.428571  0.428571      2.000000
 -0.428571  0.428571  0.428571      4.000000
 -0.285714  0.428571  0.428571      4.000000
 -0.142857  0.428571  0.428571      4.000000
 -0.428571 -0.428571  0.428571      2.000000
 -0.285714 -0.428571  0.428571      4.000000
 -0.142857 -0.428571  0.428571      4.000000
 -0.285714 -0.285714  0.428571      2.000000
 -0.142857 -0.285714  0.428571      4.000000
 -0.142857 -0.142857  0.428571      2.000000

 Following cartesian coordinates:
            Coordinates               Weight
  0.000000  0.000000  0.000000      1.000000
  0.023905  0.009918  0.000000      4.000000
  0.047810  0.019835  0.000000      4.000000
  0.071714  0.029753  0.000000      4.000000
[...]
   0.00000000  0.00000000  0.14285714       0.006
   0.14285714  0.00000000  0.14285714       0.012
   0.28571429 -0.00000000  0.14285714       0.012
   0.42857143 -0.00000000  0.14285714       0.012
  -0.42857143 -0.00000000  0.14285714       0.012
  -0.28571429  0.00000000  0.14285714       0.012
  -0.14285714  0.00000000  0.14285714       0.012
   0.14285714  0.14285714  0.14285714       0.006
   0.28571429  0.14285714  0.14285714       0.012
   0.42857143  0.14285714  0.14285714       0.012
  -0.42857143  0.14285714  0.14285714       0.012
  -0.28571429  0.14285714  0.14285714       0.012
  -0.14285714  0.14285714  0.14285714       0.012
   0.28571429  0.28571429  0.14285714       0.006
   0.42857143  0.28571429  0.14285714       0.012
  -0.42857143  0.28571429  0.14285714       0.012
  -0.28571429  0.28571429  0.14285714       0.012
  -0.14285714  0.28571429  0.14285714       0.012
   0.42857143  0.42857143  0.14285714       0.006
  -0.42857143  0.42857143  0.14285714       0.012
  -0.28571429  0.42857143  0.14285714       0.012
  -0.14285714  0.42857143  0.14285714       0.012
  -0.42857143 -0.42857143  0.14285714       0.006
  -0.28571429 -0.42857143  0.14285714       0.012
  -0.14285714 -0.42857143  0.14285714       0.012
  -0.28571429 -0.28571429  0.14285714       0.006
  -0.14285714 -0.28571429  0.14285714       0.012
  -0.14285714 -0.14285714  0.14285714       0.006
   0.00000000 -0.00000000  0.28571429       0.006
   0.14285714  0.00000000  0.28571429       0.012
   0.28571429 -0.00000000  0.28571429       0.012
   0.42857143 -0.00000000  0.28571429       0.012
  -0.42857143 -0.00000000  0.28571429       0.012
  -0.28571429 -0.00000000  0.28571429       0.012
  -0.14285714  0.00000000  0.28571429       0.012
   0.14285714  0.14285714  0.28571429       0.006
   0.28571429  0.14285714  0.28571429       0.012
   0.42857143  0.14285714  0.28571429       0.012
  -0.42857143  0.14285714  0.28571429       0.012
  -0.28571429  0.14285714  0.28571429       0.012
  -0.14285714  0.14285714  0.28571429       0.012
   0.28571429  0.28571429  0.28571429       0.006
   0.42857143  0.28571429  0.28571429       0.012
  -0.42857143  0.28571429  0.28571429       0.012
[...]
   0.28571429  0.28571429  0.42857143       0.006
   0.42857143  0.28571429  0.42857143       0.012
  -0.42857143  0.28571429  0.42857143       0.012
  -0.28571429  0.28571429  0.42857143       0.012
  -0.14285714  0.28571429  0.42857143       0.012
   0.42857143  0.42857143  0.42857143       0.006
  -0.42857143  0.42857143  0.42857143       0.012
  -0.28571429  0.42857143  0.42857143       0.012
  -0.14285714  0.42857143  0.42857143       0.012
  -0.42857143 -0.42857143  0.42857143       0.006
  -0.28571429 -0.42857143  0.42857143       0.012
  -0.14285714 -0.42857143  0.42857143       0.012
  -0.28571429 -0.28571429  0.42857143       0.006
  -0.14285714 -0.28571429  0.42857143       0.012
  -0.14285714 -0.14285714  0.42857143       0.006

 position of ions in fractional coordinates (direct lattice)
   0.26020000  0.76020000  0.29102000
   0.73980000  0.23980000  0.70898000
   0.76020000  0.46918000  0.50000000
   0.23980000  0.53082000  0.50000000
   0.46918000  0.96918000  0.70898000
   0.53082000  0.03082000  0.29102000
   0.96918000  0.26020000  0.50000000
   0.03082000  0.73980000  0.50000000
   0.25000000  0.25000000  0.00000000
   0.75000000  0.25000000  0.50000000
   0.75000000  0.75000000  0.00000000
   0.25000000  0.75000000  0.50000000
   0.00000000  0.50000000  0.50000000
   0.50000000  0.00000000  0.50000000

 position of ions in cartesian coordinates  (Angst):
  -0.18594977  4.19621775 -1.09504075
   3.87194844  1.32366879  1.81702890
   3.46855912  2.58982037 -0.32195183
   0.21743954  2.93006618  1.04393997
   0.58435023  5.34976364  0.45113709
   3.10164844  0.17012290  0.27085105
   5.19602650  1.43627448 -0.32195183
  -1.51002783  4.08361207  1.04393997
   0.92149967  1.37997164 -1.48867796
   3.90954562  1.37997164  0.36099407
   2.76449900  4.13991491 -4.46603389
  -0.22354696  4.13991491  0.36099407
  -1.14504663  2.75994327  1.84967204
   2.98804596  0.00000000  1.84967204

 k-point   1 :   0.0000 0.0000 0.0000  plane waves:    7353
 k-point   2 :   0.1429 0.0000 0.0000  plane waves:    7337
 k-point   3 :   0.2857 0.0000 0.0000  plane waves:    7350
 k-point   4 :   0.4286 0.0000 0.0000  plane waves:    7347
 k-point   5 :   0.1429 0.1429 0.0000  plane waves:    7343
 k-point   6 :   0.2857 0.1429 0.0000  plane waves:    7350
 k-point   7 :   0.4286 0.1429 0.0000  plane waves:    7353
 k-point   8 :  -0.4286 0.1429 0.0000  plane waves:    7349
 k-point   9 :  -0.2857 0.1429 0.0000  plane waves:    7355
 k-point  10 :  -0.1429 0.1429 0.0000  plane waves:    7366
 k-point  11 :   0.2857 0.2857 0.0000  plane waves:    7364
 k-point  12 :   0.4286 0.2857 0.0000  plane waves:    7355
 k-point  13 :  -0.4286 0.2857 0.0000  plane waves:    7364
 k-point  14 :  -0.2857 0.2857 0.0000  plane waves:    7364
 k-point  15 :   0.4286 0.4286 0.0000  plane waves:    7356
 k-point  16 :  -0.4286 0.4286 0.0000  plane waves:    7366
 k-point  17 :   0.0000 0.0000 0.1429  plane waves:    7366
 k-point  18 :   0.1429 0.0000 0.1429  plane waves:    7354
 k-point  19 :   0.2857-0.0000 0.1429  plane waves:    7349
 k-point  20 :   0.4286-0.0000 0.1429  plane waves:    7353
 k-point  21 :  -0.4286-0.0000 0.1429  plane waves:    7350
 k-point  22 :  -0.2857 0.0000 0.1429  plane waves:    7343
 k-point  23 :  -0.1429 0.0000 0.1429  plane waves:    7337
 k-point  24 :   0.1429 0.1429 0.1429  plane waves:    7372
 k-point  25 :   0.2857 0.1429 0.1429  plane waves:    7366
 k-point  26 :   0.4286 0.1429 0.1429  plane waves:    7366
 k-point  27 :  -0.4286 0.1429 0.1429  plane waves:    7372
 k-point  28 :  -0.2857 0.1429 0.1429  plane waves:    7355
 k-point  29 :  -0.1429 0.1429 0.1429  plane waves:    7366
 k-point  30 :   0.2857 0.2857 0.1429  plane waves:    7344
 k-point  31 :   0.4286 0.2857 0.1429  plane waves:    7354
 k-point  32 :  -0.4286 0.2857 0.1429  plane waves:    7364
 k-point  33 :  -0.2857 0.2857 0.1429  plane waves:    7349
 k-point  34 :  -0.1429 0.2857 0.1429  plane waves:    7351
 k-point  35 :   0.4286 0.4286 0.1429  plane waves:    7356
 k-point  36 :  -0.4286 0.4286 0.1429  plane waves:    7345
 k-point  37 :  -0.2857 0.4286 0.1429  plane waves:    7352
 k-point  38 :  -0.1429 0.4286 0.1429  plane waves:    7344
 k-point  39 :  -0.4286-0.4286 0.1429  plane waves:    7343
 k-point  40 :  -0.2857-0.4286 0.1429  plane waves:    7342
 k-point  41 :  -0.1429-0.4286 0.1429  plane waves:    7340
 k-point  42 :  -0.2857-0.2857 0.1429  plane waves:    7347
 k-point  43 :  -0.1429-0.2857 0.1429  plane waves:    7348
 k-point  44 :  -0.1429-0.1429 0.1429  plane waves:    7326
 k-point  45 :   0.0000-0.0000 0.2857  plane waves:    7364
 k-point  46 :   0.1429 0.0000 0.2857  plane waves:    7363
 k-point  47 :   0.2857-0.0000 0.2857  plane waves:    7355
 k-point  48 :   0.4286-0.0000 0.2857  plane waves:    7364
 k-point  49 :  -0.4286-0.0000 0.2857  plane waves:    7350
 k-point  50 :  -0.2857-0.0000 0.2857  plane waves:    7350
 k-point  51 :  -0.1429 0.0000 0.2857  plane waves:    7355
 k-point  52 :   0.1429 0.1429 0.2857  plane waves:    7351
 k-point  53 :   0.2857 0.1429 0.2857  plane waves:    7344
 k-point  54 :   0.4286 0.1429 0.2857  plane waves:    7366
 k-point  55 :  -0.4286 0.1429 0.2857  plane waves:    7349
 k-point  56 :  -0.2857 0.1429 0.2857  plane waves:    7351
 k-point  57 :  -0.1429 0.1429 0.2857  plane waves:    7349
 k-point  58 :   0.2857 0.2857 0.2857  plane waves:    7344
 k-point  59 :   0.4286 0.2857 0.2857  plane waves:    7355
 k-point  60 :  -0.4286 0.2857 0.2857  plane waves:    7352
[...]
 k-point  86 :   0.2857 0.2857 0.4286  plane waves:    7364
 k-point  87 :   0.4286 0.2857 0.4286  plane waves:    7342
 k-point  88 :  -0.4286 0.2857 0.4286  plane waves:    7331
 k-point  89 :  -0.2857 0.2857 0.4286  plane waves:    7335
 k-point  90 :  -0.1429 0.2857 0.4286  plane waves:    7343
 k-point  91 :   0.4286 0.4286 0.4286  plane waves:    7341
 k-point  92 :  -0.4286 0.4286 0.4286  plane waves:    7326
 k-point  93 :  -0.2857 0.4286 0.4286  plane waves:    7341
 k-point  94 :  -0.1429 0.4286 0.4286  plane waves:    7342
 k-point  95 :  -0.4286-0.4286 0.4286  plane waves:    7358
 k-point  96 :  -0.2857-0.4286 0.4286  plane waves:    7344
 k-point  97 :  -0.1429-0.4286 0.4286  plane waves:    7340
 k-point  98 :  -0.2857-0.2857 0.4286  plane waves:    7347
 k-point  99 :  -0.1429-0.2857 0.4286  plane waves:    7350
 k-point 100 :  -0.1429-0.1429 0.4286  plane waves:    7370

 maximum and minimum number of plane-waves per node :      3696     3644

 maximum number of plane-waves:      7372
 maximum index in each direction:
   IXMAX=   13   IYMAX=   13   IZMAX=   13
   IXMIN=  -13   IYMIN=  -13   IZMIN=  -13

 parallel 3D FFT for wavefunctions:
    minimum data exchange during FFTs selected (reduces bandwidth)
 parallel 3D FFT for charge:
    minimum data exchange during FFTs selected (reduces bandwidth)

 Broyden mixing: mesh for mixing (old mesh)
   NGX = 27   NGY = 27   NGZ = 27
  (NGX  =108   NGY  =108   NGZ  =108)
  gives a total of  19683 points

 initial charge density was supplied:
 charge density of overlapping atoms calculated
 number of electron      88.0000000 magnetization
 keeping initial charge density in first step

 Maximum index for augmentation-charges        19898 (set IRDMAX)

 First call to EWALD:  gamma=   0.293
 Maximum number of real-space cells 3x 3x 3
 Maximum number of reciprocal cells 3x 3x 3

--------------------------------------- Iteration      1(   1)  ---------------------------------------

 eigenvalue-minimisations  : 12000
 total energy-change (2. order) : 0.8426772E+03  (-0.5714470E+04)
 number of electron      88.0000000 magnetization
 augmentation part       88.0000000 magnetization

 Free energy of the ion-electron system (eV)
  alpha Z        PSCENC =       290.40167034
  Ewald energy   TEWEN  =     -4687.88924820
  -Hartree energ DENC   =     -2920.48866031
  -exchange      EXHF   =         0.00000000
  -V(xc)+E(xc)   XCENC  =       370.77121842
  PAW double counting   =      6445.14197187    -6413.54546859
  entropy T*S    EENTRO =        -0.00037052
  eigenvalues    EBANDS =      -466.33396194
  atomic energy  EATOM  =      8224.62000819
  free energy    TOTEN  =       842.67715926 eV

  energy without entropy =      842.67752978  energy(sigma->0) =      842.67734452

[...]

 eigenvalue-minimisations  : 12972
 total energy-change (2. order) :-0.9589526E+03  (-0.9411931E+03)
 number of electron      88.0000000 magnetization
 augmentation part       88.0000000 magnetization

[...]

 eigenvalue-minimisations  :     0
 total energy-change (2. order) : 0.8989446E-08  (-0.1317753E-07)
 number of electron      88.0000001 magnetization
 augmentation part        9.6407521 magnetization

[...]

--------------------------------------- Iteration      1(  65)  ---------------------------------------

 eigenvalue-minimisations  :     0
 total energy-change (2. order) :-0.2473826E-09  (-0.4744107E-09)
 number of electron      88.0000001 magnetization
 augmentation part        9.6407531 magnetization

 Free energy of the ion-electron system (eV)
  alpha Z        PSCENC =       290.40167034
  Ewald energy   TEWEN  =     -4687.88924820
  -Hartree energ DENC   =     -3053.62891168
  -exchange      EXHF   =         0.00000000
  -V(xc)+E(xc)   XCENC  =       387.63983324
  PAW double counting   =     20945.14434755   -20914.97172140
  entropy T*S    EENTRO =        -0.00250249
  eigenvalues    EBANDS =     -1277.04262057
  atomic energy  EATOM  =      8224.62000819
  free energy    TOTEN  =       -85.72914502 eV

  energy without entropy =      -85.72664254  energy(sigma->0) =      -85.72789378

  average scaling for gradient   0.7818

 average (electrostatic) potential at core
  the test charge radii are     0.7672  1.0818  0.9892
  (the norm of the test charge is              1.0000)
       1 -31.4630       2 -31.4630       3 -31.4630       4 -31.4630       5 -31.4632
       6 -31.4632       7 -31.4630       8 -31.4630       9 -82.4938      10 -81.1593
      11 -82.4938      12 -81.1593      13 -87.7055      14 -87.7055

 E-fermi :   4.5042     XC(G=0): -10.2473     alpha+bet :-11.8839

 Fermi energy:         4.5042424308

 k-point     1 :       0.0000    0.0000    0.0000
  band No.  band energies     occupation
      1     -58.6480      2.00000
      2     -58.6461      2.00000
      3     -58.4284      2.00000
      4     -58.4284      2.00000
      5     -34.8414      2.00000
      6     -34.8093      2.00000
      7     -32.5150      2.00000
      8     -32.5149      2.00000
      9     -32.5132      2.00000
     10     -32.5132      2.00000
     11     -31.7579      2.00000
     12     -31.7579      2.00000
     13     -31.7575      2.00000
     14     -31.7575      2.00000
     15     -31.6953      2.00000
     16     -31.6925      2.00000
     17     -10.5701      2.00000
     18      -8.1696      2.00000
     19      -7.1194      2.00000
     20      -4.4736      2.00000
     21      -4.4736      2.00000
     22      -2.9452      2.00000
     23      -2.9451      2.00000
     24      -2.8632      2.00000
     25      -2.2720      2.00000
     26      -2.2262      2.00000
     27      -2.2262      2.00000
     28      -0.9430      2.00000
     29      -0.9348      2.00000
     30      -0.8785      2.00000
     31      -0.6493      2.00000
     32       0.2012      2.00000
     33       1.2033      2.00000
     34       1.2033      2.00000
     35       2.6760      2.00000
     36       2.6760      2.00000
     37       2.8666      2.00000
     38       3.6121      2.00000
     39       3.9269      2.00000
     40       3.9270      2.00000
     41       4.0004      2.00000
     42       4.5020      1.12489
     43       4.5020      1.12452
     44       4.5872      0.00000
     45       4.6282      0.00000
     46       5.4469      0.00000
     47       5.4907      0.00000
     48       5.6878      0.00000
     49       5.6878      0.00000
     50       5.7518      0.00000
     51       5.8754      0.00000
     52       6.1091      0.00000
     53       6.4617      0.00000
     54       7.1824      0.00000

[...]

 k-point   100 :      -0.1429   -0.1429    0.4286
  band No.  band energies     occupation
      1     -58.6476      2.00000
      2     -58.6465      2.00000
      3     -58.4284      2.00000
      4     -58.4284      2.00000
      5     -34.8354      2.00000
      6     -34.8154      2.00000
      7     -32.5132      2.00000
      8     -32.5127      2.00000
      9     -32.5124      2.00000
     10     -32.5118      2.00000
     11     -31.7599      2.00000
     12     -31.7597      2.00000
     13     -31.7594      2.00000
     14     -31.7592      2.00000
     15     -31.6948      2.00000
     16     -31.6930      2.00000
     17     -10.3114      2.00000
     18      -9.0942      2.00000
     19      -5.9422      2.00000
     20      -4.4036      2.00000
     21      -4.3249      2.00000
     22      -3.5126      2.00000
     23      -3.3398      2.00000
     24      -3.2793      2.00000
     25      -2.2160      2.00000
     26      -1.8536      2.00000
     27      -1.7744      2.00000
     28      -1.1215      2.00000
     29      -0.8335      2.00000
     30      -0.7606      2.00000
     31      -0.5498      2.00000
     32      -0.0367      2.00000
     33       0.5149      2.00000
     34       1.1237      2.00000
     35       2.7260      2.00000
     36       2.8463      2.00000
     37       3.3130      2.00000
     38       3.4320      2.00000
     39       3.9421      2.00000
     40       4.0504      2.00000
     41       4.0543      2.00000
     42       4.1588      2.00000
     43       4.2638      2.00000
     44       4.4259      2.00000
     45       4.8714      0.00000
     46       5.2916      0.00000
     47       5.3009      0.00000
     48       5.4353      0.00000
     49       5.5172      0.00000
     50       5.7439      0.00000
     51       6.2313      0.00000
     52       6.3074      0.00000
     53       6.8764      0.00000
     54       7.2869      0.00000

 soft charge-density along one line, spin component           1
         0         1         2         3         4         5         6         7         8         9
 total charge-density along one line

------------------------ aborting loop because EDIFF is reached ----------------------------------------

  FREE ENERGIE OF THE ION-ELECTRON SYSTEM (eV)
  free  energy   TOTEN  =       -85.72914502 eV

  energy  without entropy=      -85.72664254  energy(sigma->0) =      -85.72789378

 writing wavefunctions