 vasp.6.2.0 18Jan21 (build Jan 05 2022 15:41:44) complex

 executed on             LinuxIFC date 2025.05.07  17:10:08

 INCAR:
   SYSTEM = routine with relax: pwdword
   ICHARG = 2
   NPAR = 6
   KPAR = 2
   NCORE = 2
   ADDGRID = T
   PREC = Acc
   ENCUT = 600
   METAGGA = R2SCAN
   LASPH = .TRUE.
   LMIXTAU = .FALSE.
   ALGO = A
   EDIFF = 1E-9
   NELM = 100
   NELMIN = 6
   IALGO = 38
   LREAL = F
   NSW = 0
   ISIF = -1
   ISMEAR = 0
   SIGMA = 0.02

 POTCAR:    PAW_PBE B 06Sep2000
 POTCAR:    PAW_PBE Mo_sv 02Feb2006
 POTCAR:    PAW_PBE Si 05Jan2001
|           W    W    AA    RRRRR   N    N  II  N    N   GGGG   !!!           |
|           W    W   A  A   R    R  NN   N  II  NN   N  G    G  !!!           |
|           W    W  A    A  R    R  N N  N  II  N N  N  G       !!!           |
|           W WW W  AAAAAA  RRRRR   N  N N  II  N  N N  G  GGG   !            |
|           WW  WW  A    A  R   R   N   NN  II  N   NN  G    G                |
|           W    W  A    A  R    R  N    N  II  N    N   GGGG   !!!           |
|     For optimal performance we recommend to set                             |
|       NCORE = 2 up to number-of-cores-per-socket                            |
|     This setting can greatly improve the performance of VASP for DFT.       |
|     The default, NCORE=1 might be grossly inefficient on modern             |
|     multi-core architectures or massively parallel machines. Do your        |
|     Unfortunately you need to use the default for GW and RPA                |
|     calculations (for HF NCORE is supported but not extensively tested      |
|     yet).                                                                   |

 POTCAR:    PAW_PBE B 06Sep2000
   VRHFIN =B: s2p1

   TITEL  = PAW_PBE B 06Sep2000
   POMASS =   10.811; ZVAL   =    3.000    mass and valenz
   ENMAX  =  318.614; ENMIN  =  238.960 eV

 POTCAR:    PAW_PBE Mo_sv 02Feb2006
   VRHFIN =Mo: 4p5s4d

   TITEL  = PAW_PBE Mo_sv 02Feb2006
   POMASS =   95.940; ZVAL   =   14.000    mass and valenz
   ENMAX  =  242.676; ENMIN  =  182.007 eV

 POTCAR:    PAW_PBE Si 05Jan2001
   VRHFIN =Si: s2p2

   TITEL  = PAW_PBE Si 05Jan2001
   POMASS =   28.085; ZVAL   =    4.000    mass and valenz
   ENMAX  =  245.345; ENMIN  =  184.009 eV

  PAW_PBE B 06Sep2000                   :
  PAW_PBE Mo_sv 02Feb2006               :
  PAW_PBE Si 05Jan2001                  :

 POSCAR: EA110
  positions in direct lattice

 METAGGA = R2SCA    LMAXTAU =  6    LMIXTAU =  F

 ion  position               nearest neighbor table
   1  0.337  0.609  0.500-   5 1.41   4 1.41   2 1.91  18 1.93  13 2.24   9 2.39  11 2.39  12 2.40
                            10 2.53  14 2.53  17 2.58
   2  0.109  0.837  0.500-   5 1.41   4 1.41   1 1.91  17 1.93  12 2.24  11 2.39   9 2.39  13 2.40
                            10 2.53  14 2.53  18 2.58
   3  0.609  0.109  0.272-   7 1.41   8 1.41   6 1.91  15 1.93  10 2.24  11 2.39   9 2.39  14 2.40
                            13 2.53  12 2.53  16 2.58
   4  0.163  0.663  0.272-   2 1.41   1 1.41   5 1.91  15 1.93  10 2.24  11 2.39   9 2.39  14 2.40
                            13 2.53  12 2.53  16 2.58
   5  0.391  0.891  0.728-   1 1.41   2 1.41   4 1.91  16 1.93  14 2.24   9 2.39  11 2.39  10 2.40
                            12 2.53  13 2.53  15 2.58
   6  0.837  0.337  0.728-   8 1.41   7 1.41   3 1.91  16 1.93  14 2.24   9 2.39  11 2.39  10 2.40
                            13 2.53  12 2.53  15 2.58
   7  0.663  0.391  0.500-   3 1.41   6 1.41   8 1.91  17 1.93  12 2.24  11 2.39   9 2.39  13 2.40
                            14 2.53  10 2.53  18 2.58
   8  0.891  0.163  0.500-   3 1.41   6 1.41   7 1.91  18 1.93  13 2.24   9 2.39  11 2.39  12 2.40
                            14 2.53  10 2.53  17 2.58
   9  0.750  0.750  0.000-   8 2.39   1 2.39   7 2.39   2 2.39   6 2.39   4 2.39   3 2.39   5 2.39
                            18 2.87  18 2.87  16 2.87  15 2.87  17 2.87  17 2.87  16 2.87  15 2.87
  10  0.812  0.312  0.124-  16 0.80   4 2.24   3 2.24   5 2.40   6 2.40  17 2.40  18 2.40   2 2.53
                             1 2.53   8 2.53   7 2.53  11 2.90   9 2.90   9 2.90  11 2.90  13 3.05
  11  0.250  0.250  0.000-   7 2.39   2 2.39   1 2.39   8 2.39   6 2.39   4 2.39   3 2.39   5 2.39
                            17 2.87  17 2.87  15 2.87  16 2.87  18 2.87  18 2.87  15 2.87  16 2.87
  12  0.312  0.188  0.500-  18 0.80   2 2.24   7 2.24   8 2.40   1 2.40  16 2.40  15 2.40   6 2.53
                             4 2.53   5 2.53   3 2.53   9 2.90   9 2.90  11 2.90  11 2.90  14 3.05
  13  0.688  0.812  0.500-  17 0.80   8 2.24   1 2.24   2 2.40   7 2.40  16 2.40  15 2.40   6 2.53
                             4 2.53   3 2.53   5 2.53  11 2.90  11 2.90   9 2.90   9 2.90  10 3.05
  14  0.188  0.688  0.876-  15 0.80   6 2.24   5 2.24   3 2.40   4 2.40  17 2.40  18 2.40   8 2.53
                             7 2.53   2 2.53   1 2.53   9 2.90  11 2.90  11 2.90   9 2.90  12 3.05
  15  0.283  0.783  0.067-  14 0.80   3 1.93   4 1.93  13 2.40  12 2.40   6 2.58   5 2.58  11 2.87
                             9 2.87  11 2.87   9 2.87  18 2.99  17 2.99  17 2.99  18 2.99
  16  0.717  0.217  0.933-  10 0.80   5 1.93   6 1.93  12 2.40  13 2.40   4 2.58   3 2.58   9 2.87
                            11 2.87   9 2.87  11 2.87  18 2.99  17 2.99  17 2.99  18 2.99
  17  0.783  0.717  0.500-  13 0.80   7 1.93   2 1.93  10 2.40  14 2.40   8 2.58   1 2.58  11 2.87
                            11 2.87   9 2.87   9 2.87  16 2.99  15 2.99  15 2.99  16 2.99
  18  0.217  0.283  0.500-  12 0.80   1 1.93   8 1.93  10 2.40  14 2.40   2 2.58   7 2.58   9 2.87
                             9 2.87  11 2.87  11 2.87  15 2.99  16 2.99  16 2.99  15 2.99

  LATTYP: Found a body centered tetragonal cell.
 ALAT       =     5.9208603420
 C/A-ratio  =     1.3125499686

  Lattice vectors:

 A1 = (   5.0635820567,   0.0000000000,  -2.6433518940)
 A2 = (  -1.8597423545,   4.7096944295,  -2.6433518940)
 A3 = (   0.0000000000,   0.0000000000,   5.7120200000)

Analysis of symmetry for initial positions (statically):
 Subroutine PRICEL returns:
 Original cell was already a primitive cell.

 Routine SETGRP: Setting up the symmetry group for a
 body centered tetragonal supercell.

 Subroutine GETGRP returns: Found 16 space group operations
 (whereof  8 operations were pure point group operations)
 out of a pool of 16 trial point group operations.

The static configuration has the point symmetry C_4h.
 The point group associated with its full space group is D_4h.

Analysis of symmetry for dynamics (positions and initial velocities):
 Subroutine PRICEL returns:
 Original cell was already a primitive cell.

 Routine SETGRP: Setting up the symmetry group for a
 body centered tetragonal supercell.

 Subroutine GETGRP returns: Found 16 space group operations
 (whereof  8 operations were pure point group operations)
 out of a pool of 16 trial point group operations.

The dynamic configuration has the point symmetry C_4h.
 The point group associated with its full space group is D_4h.

 Subroutine INISYM returns: Found 16 space group operations
 (whereof  8 operations are pure point group operations),
 and found     1 'primitive' translations

                                     Primitive cell

  volume of cell :     136.2198

  direct lattice vectors                    reciprocal lattice vectors
     5.063582057  0.000000000 -2.643351894     0.197488653  0.077983406  0.000000000
    -1.859742355  4.709694430 -2.643351894     0.000000000  0.212328000  0.000000000
     0.000000000  0.000000000  5.712020000     0.091391838  0.134347430  0.175069415

  length of vectors
     5.712020000  5.712020000  5.712020000     0.212328000  0.212328000  0.238853511

  position of ions in fractional coordinates (direct lattice)
     0.336840000  0.608890000  0.500000000
     0.108890000  0.836840000  0.500000000
     0.608890000  0.108890000  0.272050000
     0.163160000  0.663160000  0.272050000
     0.391110000  0.891110000  0.727950000
     0.836840000  0.336840000  0.727950000
     0.663160000  0.391110000  0.500000000
     0.891110000  0.163160000  0.500000000
     0.750000000  0.750000000  0.000000000
     0.812040000  0.312040000  0.124080000
     0.250000000  0.250000000  0.000000000
     0.312040000  0.187960000  0.500000000
     0.687960000  0.812040000  0.500000000
     0.187960000  0.687960000  0.875920000
     0.283260000  0.783260000  0.066520000
     0.716740000  0.216740000  0.933480000
     0.783260000  0.716740000  0.500000000
     0.216740000  0.283260000  0.500000000

  ion indices of the primitive-cell ions
   primitive index   ion index
                 1           1
                 2           2
                 3           3
                 4           4
                 5           5
                 6           6
                 7           7
                 8           8
                 9           9
                10          10
                11          11
                12          12
                13          13
                14          14
                15          15
                16          16
                17          17
                18          18

 KPOINTS: EA

Automatic generation of k-mesh.
 Grid dimensions read from file:
 generate k-points for:    8    8    8

 Generating k-lattice:

  Cartesian coordinates                     Fractional coordinates (reciprocal lattice)
     0.024686082  0.009747926  0.000000000     0.125000000  0.000000000  0.000000000
     0.000000000  0.026541000  0.000000000     0.000000000  0.125000000  0.000000000
     0.011423980  0.016793429  0.021883677     0.000000000  0.000000000  0.125000000

  Length of vectors
     0.026541000  0.026541000  0.029856689

  Shift w.r.t. Gamma in fractional coordinates (k-lattice)
     0.000000000  0.000000000  0.000000000

 Subroutine IBZKPT returns following result:

 Found     59 irreducible k-points:

 Following reciprocal coordinates:
            Coordinates               Weight
  0.000000  0.000000  0.000000      1.000000
  0.125000 -0.000000  0.000000      8.000000
  0.250000 -0.000000  0.000000      8.000000
  0.375000 -0.000000  0.000000      8.000000
  0.500000 -0.000000  0.000000      4.000000
  0.125000  0.125000  0.000000      8.000000
  0.250000  0.125000  0.000000     16.000000
  0.375000  0.125000  0.000000     16.000000
  0.500000  0.125000  0.000000     16.000000
 -0.375000  0.125000  0.000000     16.000000
 -0.250000  0.125000  0.000000     16.000000
 -0.125000  0.125000  0.000000      4.000000
  0.250000  0.250000  0.000000      8.000000
  0.375000  0.250000  0.000000     16.000000
  0.500000  0.250000  0.000000     16.000000
 -0.375000  0.250000  0.000000     16.000000
 -0.250000  0.250000  0.000000      4.000000
  0.375000  0.375000  0.000000      8.000000
  0.500000  0.375000  0.000000     16.000000
 -0.375000  0.375000  0.000000      4.000000
  0.500000  0.500000  0.000000      2.000000
  0.125000  0.125000  0.125000      8.000000
  0.250000  0.125000  0.125000     16.000000
  0.375000  0.125000  0.125000      8.000000
 -0.125000  0.125000  0.125000      4.000000
  0.250000  0.250000  0.125000      8.000000
[...]
   0.25000000  0.25000000  0.12500000       0.016
   0.37500000  0.25000000  0.12500000       0.031
   0.50000000  0.25000000  0.12500000       0.016
  -0.25000000  0.25000000  0.12500000       0.016
  -0.12500000  0.25000000  0.12500000       0.016
   0.37500000  0.37500000  0.12500000       0.008
  -0.37500000  0.37500000  0.12500000       0.016
  -0.25000000  0.37500000  0.12500000       0.031
  -0.12500000  0.37500000  0.12500000       0.016
   0.50000000  0.50000000  0.12500000       0.008
  -0.37500000  0.50000000  0.12500000       0.031
  -0.25000000  0.50000000  0.12500000       0.031
  -0.12500000  0.50000000  0.12500000       0.016
  -0.37500000 -0.37500000  0.12500000       0.016
  -0.25000000 -0.37500000  0.12500000       0.031
  -0.12500000 -0.37500000  0.12500000       0.016
  -0.25000000 -0.25000000  0.12500000       0.016
  -0.12500000 -0.25000000  0.12500000       0.016
  -0.12500000 -0.12500000  0.12500000       0.004
   0.25000000  0.25000000  0.25000000       0.004
  -0.25000000  0.25000000  0.25000000       0.008
  -0.37500000  0.37500000  0.25000000       0.016
  -0.25000000  0.37500000  0.25000000       0.016
   0.50000000  0.50000000  0.25000000       0.008
  -0.37500000  0.50000000  0.25000000       0.031
  -0.25000000  0.50000000  0.25000000       0.016
  -0.37500000 -0.37500000  0.25000000       0.016
  -0.25000000 -0.37500000  0.25000000       0.016
  -0.25000000 -0.25000000  0.25000000       0.004
  -0.37500000  0.37500000  0.37500000       0.008
   0.50000000  0.50000000  0.37500000       0.008
  -0.37500000  0.50000000  0.37500000       0.016
  -0.37500000 -0.37500000  0.37500000       0.004
   0.50000000  0.50000000  0.50000000       0.002

 position of ions in fractional coordinates (direct lattice)
   0.33684000  0.60889000  0.50000000
   0.10889000  0.83684000  0.50000000
   0.60889000  0.10889000  0.27205000
   0.16316000  0.66316000  0.27205000
   0.39111000  0.89111000  0.72795000
   0.83684000  0.33684000  0.72795000
   0.66316000  0.39111000  0.50000000
   0.89111000  0.16316000  0.50000000
   0.75000000  0.75000000  0.00000000
   0.81204000  0.31204000  0.12408000
   0.25000000  0.25000000  0.00000000
   0.31204000  0.18796000  0.50000000
   0.68796000  0.81204000  0.50000000
   0.18796000  0.68796000  0.87592000
   0.28326000  0.78326000  0.06652000
   0.71674000  0.21674000  0.93348000
   0.78326000  0.71674000  0.50000000
   0.21674000  0.28326000  0.50000000

 position of ions in cartesian coordinates  (Angst):
   0.57323846  2.86768584  0.35611281
  -1.00493334  3.94126069  0.35611281
   2.88065713  0.51283863 -0.34339008
  -0.40713269  3.12328096 -0.63029950
   0.32318257  4.19685580  0.76870629
   3.61097239  1.58641347  1.05561571
   2.63060124  1.84200859  0.06920340
   4.20877304  0.76843374  0.06920340
   2.40287978  3.53227082 -3.96502784
   3.53151717  1.46961305 -2.26259156
   0.80095993  1.17742361 -1.32167595
   1.23048297  0.88523416  1.53433405
   1.97335673  3.82446026 -1.10901784
  -0.32767747  3.24008138  2.68790777
  -0.02235154  3.68891526 -2.43922409
   3.22619125  1.02077917  2.86454030
   2.63314955  3.37562639 -1.10901784
   0.57069016  1.33406804  1.53433405

 k-point   1 :   0.0000 0.0000 0.0000  plane waves:    4603
 k-point   2 :   0.1250-0.0000 0.0000  plane waves:    4566
 k-point   3 :   0.2500-0.0000 0.0000  plane waves:    4550
 k-point   4 :   0.3750-0.0000 0.0000  plane waves:    4538
 k-point   5 :   0.5000-0.0000 0.0000  plane waves:    4538
 k-point   6 :   0.1250 0.1250 0.0000  plane waves:    4557
 k-point   7 :   0.2500 0.1250 0.0000  plane waves:    4542
 k-point   8 :   0.3750 0.1250 0.0000  plane waves:    4541
 k-point   9 :   0.5000 0.1250 0.0000  plane waves:    4545
 k-point  10 :  -0.3750 0.1250 0.0000  plane waves:    4540
 k-point  11 :  -0.2500 0.1250 0.0000  plane waves:    4563
 k-point  12 :  -0.1250 0.1250 0.0000  plane waves:    4563
 k-point  13 :   0.2500 0.2500 0.0000  plane waves:    4538
 k-point  14 :   0.3750 0.2500 0.0000  plane waves:    4546
 k-point  15 :   0.5000 0.2500 0.0000  plane waves:    4545
 k-point  16 :  -0.3750 0.2500 0.0000  plane waves:    4546
 k-point  17 :  -0.2500 0.2500 0.0000  plane waves:    4557
 k-point  18 :   0.3750 0.3750 0.0000  plane waves:    4552
 k-point  19 :   0.5000 0.3750 0.0000  plane waves:    4544
 k-point  20 :  -0.3750 0.3750 0.0000  plane waves:    4536
 k-point  21 :   0.5000 0.5000 0.0000  plane waves:    4560
 k-point  22 :   0.1250 0.1250 0.1250  plane waves:    4538
 k-point  23 :   0.2500 0.1250 0.1250  plane waves:    4553
 k-point  24 :   0.3750 0.1250 0.1250  plane waves:    4546
 k-point  25 :  -0.1250 0.1250 0.1250  plane waves:    4552
 k-point  26 :   0.2500 0.2500 0.1250  plane waves:    4544
 k-point  27 :   0.3750 0.2500 0.1250  plane waves:    4560
 k-point  28 :   0.5000 0.2500 0.1250  plane waves:    4550
 k-point  29 :  -0.2500 0.2500 0.1250  plane waves:    4560
 k-point  30 :  -0.1250 0.2500 0.1250  plane waves:    4555
 k-point  31 :   0.3750 0.3750 0.1250  plane waves:    4554
 k-point  32 :  -0.3750 0.3750 0.1250  plane waves:    4555
 k-point  33 :  -0.2500 0.3750 0.1250  plane waves:    4554
 k-point  34 :  -0.1250 0.3750 0.1250  plane waves:    4553
 k-point  35 :   0.5000 0.5000 0.1250  plane waves:    4552
 k-point  36 :  -0.3750 0.5000 0.1250  plane waves:    4536
 k-point  37 :  -0.2500 0.5000 0.1250  plane waves:    4550
 k-point  38 :  -0.1250 0.5000 0.1250  plane waves:    4529
 k-point  39 :  -0.3750-0.3750 0.1250  plane waves:    4542
 k-point  40 :  -0.2500-0.3750 0.1250  plane waves:    4538
 k-point  41 :  -0.1250-0.3750 0.1250  plane waves:    4530
 k-point  42 :  -0.2500-0.2500 0.1250  plane waves:    4532
 k-point  43 :  -0.1250-0.2500 0.1250  plane waves:    4536
 k-point  44 :  -0.1250-0.1250 0.1250  plane waves:    4583
 k-point  45 :   0.2500 0.2500 0.2500  plane waves:    4564
 k-point  46 :  -0.2500 0.2500 0.2500  plane waves:    4554
 k-point  47 :  -0.3750 0.3750 0.2500  plane waves:    4551
 k-point  48 :  -0.2500 0.3750 0.2500  plane waves:    4543
 k-point  49 :   0.5000 0.5000 0.2500  plane waves:    4548
 k-point  50 :  -0.3750 0.5000 0.2500  plane waves:    4536
 k-point  51 :  -0.2500 0.5000 0.2500  plane waves:    4536
 k-point  52 :  -0.3750-0.3750 0.2500  plane waves:    4531
 k-point  53 :  -0.2500-0.3750 0.2500  plane waves:    4534
 k-point  54 :  -0.2500-0.2500 0.2500  plane waves:    4540
 k-point  55 :  -0.3750 0.3750 0.3750  plane waves:    4536
 k-point  56 :   0.5000 0.5000 0.3750  plane waves:    4530
 k-point  57 :  -0.3750 0.5000 0.3750  plane waves:    4538
 k-point  58 :  -0.3750-0.3750 0.3750  plane waves:    4520
 k-point  59 :   0.5000 0.5000 0.5000  plane waves:    4560

 maximum and minimum number of plane-waves per node :      2308     2249

 maximum number of plane-waves:      4603
 maximum index in each direction:
   IXMAX=   11   IYMAX=   11   IZMAX=   11
   IXMIN=  -11   IYMIN=  -11   IZMIN=  -11

 parallel 3D FFT for wavefunctions:
    minimum data exchange during FFTs selected (reduces bandwidth)
 parallel 3D FFT for charge:
    minimum data exchange during FFTs selected (reduces bandwidth)

 Broyden mixing: mesh for mixing (old mesh)
   NGX = 23   NGY = 23   NGZ = 23
  (NGX  = 96   NGY  = 96   NGZ  = 96)
  gives a total of  12167 points

 initial charge density was supplied:
 charge density of overlapping atoms calculated
 number of electron     124.0000000 magnetization
 keeping initial charge density in first step

 Maximum index for augmentation-charges        23077 (set IRDMAX)

 First call to EWALD:  gamma=   0.344
 Maximum number of real-space cells 3x 3x 3
 Maximum number of reciprocal cells 3x 3x 3

--------------------------------------- Iteration      1(   1)  ---------------------------------------

 eigenvalue-minimisations  :  9636
 total energy-change (2. order) : 0.2024361E+04  (-0.9168073E+04)
 number of electron     124.0000000 magnetization
 augmentation part      124.0000000 magnetization

 Free energy of the ion-electron system (eV)
  alpha Z        PSCENC =       916.58905971
  Ewald energy   TEWEN  =     -9986.89153100
  -Hartree energ DENC   =     -2112.78689315
  -exchange      EXHF   =         0.00000000
  -V(xc)+E(xc)   XCENC  =       545.66990614
  PAW double counting   =      9583.98494199    -9523.92957983
  entropy T*S    EENTRO =        -0.00075670
  eigenvalues    EBANDS =       446.40782584
  atomic energy  EATOM  =     12155.31816883
  free energy    TOTEN  =      2024.36114182 eV

  energy without entropy =     2024.36189852  energy(sigma->0) =     2024.36152017

[...]

 eigenvalue-minimisations  : 10230
 total energy-change (2. order) :-0.1631805E+04  (-0.1581625E+04)
 number of electron     124.0000000 magnetization
 augmentation part      124.0000000 magnetization

[...]

 eigenvalue-minimisations  :     0
 total energy-change (2. order) : 0.8940697E-07  ( 0.1367183E-06)
 number of electron     124.0000004 magnetization
 augmentation part       18.0252644 magnetization

[...]

 eigenvalue-minimisations  :     0
 total energy-change (2. order) : 0.5215406E-07  ( 0.1677252E-07)
 number of electron     124.0000004 magnetization
 augmentation part       18.0252666 magnetization

[...]

 eigenvalue-minimisations  :     0
 total energy-change (2. order) :-0.1490116E-07  (-0.3058235E-09)
 number of electron     124.0000004 magnetization
 augmentation part       18.0252665 magnetization

[...]

--------------------------------------- Iteration      1(  39)  ---------------------------------------

 eigenvalue-minimisations  :     0
 total energy-change (2. order) : 0.0000000E+00  (-0.1400721E-09)
 number of electron     124.0000004 magnetization
 augmentation part       18.0252665 magnetization

 Free energy of the ion-electron system (eV)
  alpha Z        PSCENC =       916.58905971
  Ewald energy   TEWEN  =     -9986.89153100
  -Hartree energ DENC   =     -2615.71731274
  -exchange      EXHF   =         0.00000000
  -V(xc)+E(xc)   XCENC  =       588.90114988
  PAW double counting   =  38995103.90163155-38994978.06132277
  entropy T*S    EENTRO =        -0.00154315
  eigenvalues    EBANDS =      -692.25080627
  atomic energy  EATOM  =     12155.31816883
  free energy    TOTEN  =       491.78749405 eV

  energy without entropy =      491.78903719  energy(sigma->0) =      491.78826562

  average scaling for gradient   0.9425

 average (electrostatic) potential at core
  the test charge radii are     0.7672  1.0818  0.9892
  (the norm of the test charge is              1.0000)
       1 -20.0075       2 -20.0075       3 -20.0075       4 -20.0074       5 -20.0075
       6 -20.0074       7 -20.0075       8 -20.0075       9 -72.3908      10 -76.4746
      11 -72.3908      12 -76.4741      13 -76.4741      14 -76.4746      15 -97.4773
      16 -97.4773      17 -97.4769      18 -97.4766

 E-fermi :  15.3271     XC(G=0): -15.1446     alpha+bet :-27.3232

 Fermi energy:        15.3270868808

 k-point     1 :       0.0000    0.0000    0.0000
  band No.  band energies     occupation
      1     -48.4697      2.00000
      2     -48.4666      2.00000
      3     -44.6157      2.00000
      4     -44.5863      2.00000
      5     -44.5860      2.00000
      6     -44.5657      2.00000
      7     -23.1339      2.00000
      8     -23.1336      2.00000
      9     -23.1142      2.00000
     10     -23.0103      2.00000
     11     -22.9837      2.00000
     12     -22.9340      2.00000
     13     -22.8807      2.00000
     14     -22.8807      2.00000
     15     -22.6572      2.00000
     16     -22.5939      2.00000
     17     -22.5711      2.00000
     18     -22.5708      2.00000
     19     -21.9156      2.00000
     20     -21.9156      2.00000
     21     -21.9079      2.00000
     22     -21.9078      2.00000
     23     -21.6804      2.00000
     24     -21.6201      2.00000
     25      -2.1440      2.00000
     26      -1.8409      2.00000
     27       3.9313      2.00000
     28       4.3199      2.00000
     29       4.6625      2.00000
     30       4.6625      2.00000
     31       4.7885      2.00000
     32       4.7886      2.00000
     33       5.6507      2.00000
     34       6.4794      2.00000
     35       6.5206      2.00000
     36       6.5992      2.00000
     37       6.8669      2.00000
     38       6.8669      2.00000
     39       7.0954      2.00000
     40       7.5078      2.00000
     41       7.5078      2.00000
     42       8.0137      2.00000
     43       8.3587      2.00000
     44      10.2729      2.00000
     45      10.2730      2.00000
     46      10.7318      2.00000
     47      10.7323      2.00000
     48      10.7324      2.00000
     49      10.7861      2.00000
     50      10.9099      2.00000
     51      11.1304      2.00000
     52      11.1305      2.00000
     53      12.1232      2.00000
     54      12.2921      2.00000
     55      12.3541      2.00000
     56      12.6633      2.00000
     57      12.9412      2.00000
     58      14.6667      2.00000
     59      15.0148      2.00000
     60      15.0149      2.00000
[...]
     64      15.7255      0.00000
     65      17.2409      0.00000
     66      17.2409      0.00000
     67      17.2600      0.00000
     68      17.2600      0.00000
     69      17.7220      0.00000
     70      18.0216      0.00000
     71      18.0437      0.00000
     72      18.0437      0.00000
     73      18.4728      0.00000
     74      18.4729      0.00000
     75      19.1671      0.00000
     76      19.3347      0.00000
     77      20.1875      0.00000
     78      22.0515      0.00000

[...]

 k-point    59 :       0.5000    0.5000    0.5000
  band No.  band energies     occupation
      1     -48.4681      2.00000
      2     -48.4678      2.00000
      3     -44.6165      2.00000
      4     -44.5869      2.00000
      5     -44.5867      2.00000
      6     -44.5651      2.00000
      7     -23.0754      2.00000
      8     -23.0057      2.00000
      9     -23.0055      2.00000
     10     -23.0052      2.00000
     11     -22.9422      2.00000
     12     -22.8583      2.00000
     13     -22.7841      2.00000
     14     -22.7840      2.00000
     15     -22.6638      2.00000
     16     -22.5944      2.00000
     17     -22.5930      2.00000
     18     -22.5927      2.00000
     19     -22.0117      2.00000
     20     -22.0116      2.00000
     21     -22.0115      2.00000
     22     -22.0114      2.00000
     23     -21.7841      2.00000
     24     -21.7697      2.00000
     25      -1.8543      2.00000
     26      -1.5260      2.00000
     27       2.8337      2.00000
     28       2.8337      2.00000
     29       4.3544      2.00000
     30       4.4833      2.00000
     31       5.1188      2.00000
     32       5.1189      2.00000
     33       5.5810      2.00000
     34       6.8761      2.00000
     35       7.2372      2.00000
     36       7.4103      2.00000
     37       7.4103      2.00000
     38       7.5532      2.00000
     39       7.7702      2.00000
     40       8.0203      2.00000
     41       8.3162      2.00000
     42       9.4366      2.00000
     43       9.6545      2.00000
     44       9.7206      2.00000
     45       9.7206      2.00000
     46       9.8384      2.00000
     47       9.8385      2.00000
     48       9.8933      2.00000
     49      10.9904      2.00000
     50      11.5994      2.00000
     51      11.5995      2.00000
     52      11.7795      2.00000
     53      11.7795      2.00000
     54      12.4052      2.00000
     55      12.9895      2.00000
     56      13.2462      2.00000
     57      13.3964      2.00000
     58      13.5053      2.00000
     59      13.5053      2.00000
     60      13.6077      2.00000
[...]
     64      15.1900      2.00000
     65      15.9357      0.00000
     66      15.9357      0.00000
     67      16.0954      0.00000
     68      16.0954      0.00000
     69      16.4810      0.00000
     70      17.1955      0.00000
     71      17.8567      0.00000
     72      18.1941      0.00000
     73      18.1943      0.00000
     74      18.2709      0.00000
     75      20.2479      0.00000
     76      21.0954      0.00000
     77      22.1274      0.00000
     78      22.7838      0.00000

 soft charge-density along one line, spin component           1
         0         1         2         3         4         5         6         7         8         9
 total charge-density along one line

------------------------ aborting loop because EDIFF is reached ----------------------------------------

  FREE ENERGIE OF THE ION-ELECTRON SYSTEM (eV)
  free  energy   TOTEN  =       491.78749405 eV

  energy  without entropy=      491.78903719  energy(sigma->0) =      491.78826562

 writing wavefunctions