 vasp.6.2.0 18Jan21 (build Jan 05 2022 15:41:44) complex

 executed on             LinuxIFC date 2025.05.07  20:48:56

 INCAR:
   SYSTEM = routine with relax: pwdword
   ICHARG = 2
   NPAR = 6
   KPAR = 2
   NCORE = 2
   ADDGRID = T
   PREC = Acc
   ENCUT = 600
   METAGGA = R2SCAN
   LASPH = .TRUE.
   LMIXTAU = .FALSE.
   ALGO = A
   EDIFF = 1E-9
   NELM = 100
   NELMIN = 6
   IALGO = 38
   LREAL = F
   NSW = 0
   ISIF = -1
   ISMEAR = 0
   SIGMA = 0.02

 POTCAR:    PAW_PBE B 06Sep2000
 POTCAR:    PAW_PBE Mo_sv 02Feb2006
 POTCAR:    PAW_PBE Si 05Jan2001
|           W    W    AA    RRRRR   N    N  II  N    N   GGGG   !!!           |
|           W    W   A  A   R    R  NN   N  II  NN   N  G    G  !!!           |
|           W    W  A    A  R    R  N N  N  II  N N  N  G       !!!           |
|           W WW W  AAAAAA  RRRRR   N  N N  II  N  N N  G  GGG   !            |
|           WW  WW  A    A  R   R   N   NN  II  N   NN  G    G                |
|           W    W  A    A  R    R  N    N  II  N    N   GGGG   !!!           |
|     For optimal performance we recommend to set                             |
|       NCORE = 2 up to number-of-cores-per-socket                            |
|     This setting can greatly improve the performance of VASP for DFT.       |
|     The default, NCORE=1 might be grossly inefficient on modern             |
|     multi-core architectures or massively parallel machines. Do your        |
|     Unfortunately you need to use the default for GW and RPA                |
|     calculations (for HF NCORE is supported but not extensively tested      |
|     yet).                                                                   |

 POTCAR:    PAW_PBE B 06Sep2000
   VRHFIN =B: s2p1

   TITEL  = PAW_PBE B 06Sep2000
   POMASS =   10.811; ZVAL   =    3.000    mass and valenz
   ENMAX  =  318.614; ENMIN  =  238.960 eV

 POTCAR:    PAW_PBE Mo_sv 02Feb2006
   VRHFIN =Mo: 4p5s4d

   TITEL  = PAW_PBE Mo_sv 02Feb2006
   POMASS =   95.940; ZVAL   =   14.000    mass and valenz
   ENMAX  =  242.676; ENMIN  =  182.007 eV

 POTCAR:    PAW_PBE Si 05Jan2001
   VRHFIN =Si: s2p2

   TITEL  = PAW_PBE Si 05Jan2001
   POMASS =   28.085; ZVAL   =    4.000    mass and valenz
   ENMAX  =  245.345; ENMIN  =  184.009 eV

  PAW_PBE B 06Sep2000                   :
  PAW_PBE Mo_sv 02Feb2006               :
  PAW_PBE Si 05Jan2001                  :

 POSCAR: EA229
  positions in direct lattice

 METAGGA = R2SCA    LMAXTAU =  6    LMIXTAU =  F

 ion  position               nearest neighbor table
   1  0.226  0.945  0.172-  14 1.59   9 1.91   8 2.11  11 2.46  10 2.46
   2  0.774  0.055  0.828-  14 1.59   9 1.91   7 2.11  10 2.46  11 2.46
   3  0.945  0.774  0.719-  14 1.59  12 1.91   6 2.11  11 2.46  10 2.46
   4  0.055  0.226  0.281-  14 1.59  12 1.91   5 2.11  10 2.46  11 2.46
   5  0.274  0.445  0.719-  13 1.59  12 1.91   4 2.11  10 2.46  11 2.46
   6  0.726  0.555  0.281-  13 1.59  12 1.91   3 2.11  11 2.46  10 2.46
   7  0.555  0.274  0.828-  13 1.59   9 1.91   2 2.11  11 2.46  10 2.46
   8  0.445  0.726  0.172-  13 1.59   9 1.91   1 2.11  10 2.46  11 2.46
   9  0.500  0.000  0.500-   1 1.91   2 1.91   7 1.91   8 1.91
  10  0.250  0.250  0.000-  13 1.87  14 1.87   4 2.46   5 2.46   2 2.46   8 2.46   7 2.46   1 2.46
                             3 2.46   6 2.46
  11  0.750  0.750  0.000-  13 1.87  14 1.87   3 2.46   6 2.46   1 2.46   7 2.46   2 2.46   8 2.46
                             4 2.46   5 2.46
  12  0.000  0.500  0.500-   3 1.91   4 1.91   5 1.91   6 1.91
  13  0.500  0.500  0.000-   5 1.59   6 1.59   7 1.59   8 1.59  10 1.87  11 1.87
  14  0.000  0.000  0.000-   3 1.59   4 1.59   1 1.59   2 1.59  10 1.87  11 1.87

  LATTYP: Found a body centered tetragonal cell.
 ALAT       =     6.8353169055
 C/A-ratio  =     1.0958109712

  Lattice vectors:

 A1 = (   5.6678683731,   0.0000000000,  -2.2938808157)
 A2 = (  -2.5753682041,   5.0489811357,  -2.2938808157)
 A3 = (   0.0000000000,   0.0000000000,   6.1144600000)

Analysis of symmetry for initial positions (statically):
 Subroutine PRICEL returns:
 Original cell was already a primitive cell.

 Routine SETGRP: Setting up the symmetry group for a
 body centered tetragonal supercell.

 Subroutine GETGRP returns: Found  4 space group operations
 (whereof  2 operations were pure point group operations)
 out of a pool of 16 trial point group operations.

The static configuration has the point symmetry S_2 .
 The point group associated with its full space group is C_2h.

Analysis of symmetry for dynamics (positions and initial velocities):
 Subroutine PRICEL returns:
 Original cell was already a primitive cell.

 Routine SETGRP: Setting up the symmetry group for a
 body centered tetragonal supercell.

 Subroutine GETGRP returns: Found  4 space group operations
 (whereof  2 operations were pure point group operations)
 out of a pool of 16 trial point group operations.

The dynamic configuration has the point symmetry S_2 .
 The point group associated with its full space group is C_2h.

 Subroutine INISYM returns: Found  4 space group operations
 (whereof  2 operations are pure point group operations),
 and found     1 'primitive' translations

                                     Primitive cell

  volume of cell :     174.9773

  direct lattice vectors                    reciprocal lattice vectors
     5.667868373  0.000000000 -2.293880816     0.176433173  0.089994470  0.000000000
    -2.575368204  5.048981136 -2.293880816     0.000000000  0.198059762  0.000000000
     0.000000000  0.000000000  6.114460000     0.066190092  0.108065484  0.163546740

  length of vectors
     6.114460000  6.114460000  6.114460000     0.198059762  0.198059762  0.206898074

  position of ions in fractional coordinates (direct lattice)
     0.226460000  0.945240000  0.171700000
     0.773540000  0.054760000  0.828300000
     0.945240000  0.773540000  0.718790000
     0.054760000  0.226460000  0.281210000
     0.273540000  0.445240000  0.718790000
     0.726460000  0.554760000  0.281210000
     0.554760000  0.273540000  0.828300000
     0.445240000  0.726460000  0.171700000
     0.500000000  0.000000000  0.500000000
     0.250000000  0.250000000  1.000000000
     0.750000000  0.750000000  1.000000000
     0.000000000  0.500000000  0.500000000
     0.500000000  0.500000000  1.000000000
     0.000000000  0.000000000  0.000000000

  ion indices of the primitive-cell ions
   primitive index   ion index
                 1           1
                 2           2
                 3           3
                 4           4
                 5           5
                 6           6
                 7           7
                 8           8
                 9           9
                10          10
                11          11
                12          12
                13          13
                14          14

 KPOINTS: EA

Automatic generation of k-mesh.
 Grid dimensions read from file:
 generate k-points for:    7    7    7

 Generating k-lattice:

  Cartesian coordinates                     Fractional coordinates (reciprocal lattice)
     0.025204739  0.012856353  0.000000000     0.142857143  0.000000000  0.000000000
     0.000000000  0.028294252  0.000000000     0.000000000  0.142857143  0.000000000
     0.009455727  0.015437926  0.023363820     0.000000000 -0.000000000  0.142857143

  Length of vectors
     0.028294252  0.028294252  0.029556868

  Shift w.r.t. Gamma in fractional coordinates (k-lattice)
     0.000000000  0.000000000  0.000000000

 Subroutine IBZKPT returns following result:

 Found    100 irreducible k-points:

 Following reciprocal coordinates:
            Coordinates               Weight
  0.000000  0.000000  0.000000      1.000000
  0.142857 -0.000000  0.000000      4.000000
  0.000000  0.142857 -0.142857      4.000000
  0.285714  0.000000  0.000000      4.000000
 -0.000000  0.285714 -0.285714      4.000000
  0.428571  0.000000  0.000000      4.000000
 -0.000000  0.428571 -0.428571      4.000000
  0.142857  0.142857  0.000000      2.000000
  0.000000  0.285714 -0.142857      4.000000
  0.142857  0.142857 -0.285714      2.000000
  0.285714  0.142857  0.000000      4.000000
  0.000000  0.428571 -0.142857      4.000000
  0.142857  0.285714 -0.428571      4.000000
  0.428571 -0.000000 -0.285714      4.000000
  0.428571  0.142857  0.000000      4.000000
  0.000000 -0.428571 -0.142857      4.000000
  0.142857  0.428571  0.428571      4.000000
 -0.428571 -0.000000 -0.428571      4.000000
 -0.428571  0.142857  0.000000      4.000000
  0.000000 -0.285714 -0.142857      4.000000
  0.142857 -0.428571  0.285714      4.000000
 -0.285714  0.000000  0.428571      4.000000
 -0.285714  0.142857  0.000000      4.000000
  0.000000 -0.142857 -0.142857      4.000000
  0.142857 -0.285714  0.142857      4.000000
 -0.142857  0.000000  0.285714      4.000000
 -0.142857  0.142857  0.000000      2.000000
  0.000000 -0.000000 -0.142857      2.000000
  0.285714  0.285714  0.000000      2.000000
 -0.000000 -0.428571 -0.285714      4.000000
  0.285714  0.285714  0.428571      2.000000
  0.428571  0.285714  0.000000      4.000000
 -0.000000 -0.285714 -0.285714      4.000000
  0.285714  0.428571  0.285714      4.000000
 -0.285714 -0.000000 -0.428571      4.000000
 -0.428571  0.285714  0.000000      4.000000
 -0.000000 -0.142857 -0.285714      4.000000
  0.285714 -0.428571  0.142857      4.000000
 -0.142857  0.000000  0.428571      4.000000
 -0.285714  0.285714  0.000000      2.000000
 -0.000000 -0.000000 -0.285714      2.000000
  0.428571  0.428571  0.000000      2.000000
 -0.000000 -0.142857 -0.428571      4.000000
  0.428571  0.428571  0.142857      2.000000
 -0.428571  0.428571  0.000000      2.000000
 -0.000000 -0.000000 -0.428571      2.000000
  0.142857  0.142857  0.142857      2.000000
 -0.142857  0.428571 -0.142857      4.000000
  0.142857  0.142857 -0.428571      2.000000
  0.285714  0.142857  0.142857      4.000000
 -0.142857 -0.428571 -0.142857      4.000000
  0.142857  0.285714  0.428571      4.000000
 -0.428571 -0.142857 -0.285714      4.000000
 -0.142857  0.142857  0.142857      4.000000
  0.285714  0.285714  0.142857      2.000000
 -0.142857 -0.285714 -0.285714      4.000000
  0.285714  0.285714  0.285714      2.000000
  0.428571  0.285714  0.142857      4.000000
 -0.142857 -0.142857 -0.285714      2.000000
 -0.142857 -0.142857 -0.428571      2.000000
[...]
 -0.142857 -0.285714  0.285714      4.000000
 -0.142857 -0.142857  0.142857      2.000000
 -0.285714  0.285714  0.285714      4.000000
 -0.428571  0.428571  0.285714      4.000000
 -0.285714  0.285714 -0.428571      4.000000
 -0.285714  0.428571  0.285714      4.000000
 -0.285714  0.428571 -0.428571      4.000000
 -0.428571 -0.428571  0.285714      2.000000
 -0.285714  0.428571  0.428571      4.000000
 -0.428571 -0.428571 -0.428571      2.000000
 -0.285714 -0.428571  0.285714      4.000000
 -0.285714 -0.428571  0.428571      4.000000
 -0.285714 -0.285714  0.285714      2.000000
 -0.428571  0.428571  0.428571      4.000000
 -0.428571 -0.428571  0.428571      2.000000

 Following cartesian coordinates:
            Coordinates               Weight
  0.000000  0.000000  0.000000      1.000000
[...]
   0.14285714 -0.28571429  0.14285714       0.012
  -0.14285714  0.00000000  0.28571429       0.012
  -0.14285714  0.14285714  0.00000000       0.006
   0.00000000 -0.00000000 -0.14285714       0.006
   0.28571429  0.28571429  0.00000000       0.006
  -0.00000000 -0.42857143 -0.28571429       0.012
   0.28571429  0.28571429  0.42857143       0.006
   0.42857143  0.28571429  0.00000000       0.012
  -0.00000000 -0.28571429 -0.28571429       0.012
   0.28571429  0.42857143  0.28571429       0.012
  -0.28571429 -0.00000000 -0.42857143       0.012
  -0.42857143  0.28571429  0.00000000       0.012
  -0.00000000 -0.14285714 -0.28571429       0.012
   0.28571429 -0.42857143  0.14285714       0.012
  -0.14285714  0.00000000  0.42857143       0.012
  -0.28571429  0.28571429  0.00000000       0.006
  -0.00000000 -0.00000000 -0.28571429       0.006
   0.42857143  0.42857143  0.00000000       0.006
  -0.00000000 -0.14285714 -0.42857143       0.012
   0.42857143  0.42857143  0.14285714       0.006
  -0.42857143  0.42857143  0.00000000       0.006
  -0.00000000 -0.00000000 -0.42857143       0.006
   0.14285714  0.14285714  0.14285714       0.006
  -0.14285714  0.42857143 -0.14285714       0.012
   0.14285714  0.14285714 -0.42857143       0.006
   0.28571429  0.14285714  0.14285714       0.012
  -0.14285714 -0.42857143 -0.14285714       0.012
   0.14285714  0.28571429  0.42857143       0.012
  -0.42857143 -0.14285714 -0.28571429       0.012
  -0.14285714  0.14285714  0.14285714       0.012
   0.28571429  0.28571429  0.14285714       0.006
  -0.14285714 -0.28571429 -0.28571429       0.012
   0.28571429  0.28571429  0.28571429       0.006
   0.42857143  0.28571429  0.14285714       0.012
  -0.14285714 -0.14285714 -0.28571429       0.006
  -0.14285714 -0.14285714 -0.42857143       0.006
[...]
  -0.14285714 -0.28571429  0.28571429       0.012
  -0.14285714 -0.14285714  0.14285714       0.006
  -0.28571429  0.28571429  0.28571429       0.012
  -0.42857143  0.42857143  0.28571429       0.012
  -0.28571429  0.28571429 -0.42857143       0.012
  -0.28571429  0.42857143  0.28571429       0.012
  -0.28571429  0.42857143 -0.42857143       0.012
  -0.42857143 -0.42857143  0.28571429       0.006
  -0.28571429  0.42857143  0.42857143       0.012
  -0.42857143 -0.42857143 -0.42857143       0.006
  -0.28571429 -0.42857143  0.28571429       0.012
  -0.28571429 -0.42857143  0.42857143       0.012
  -0.28571429 -0.28571429  0.28571429       0.006
  -0.42857143  0.42857143  0.42857143       0.012
  -0.42857143 -0.42857143  0.42857143       0.006

 position of ions in fractional coordinates (direct lattice)
   0.22646000  0.94524000  0.17170000
   0.77354000  0.05476000  0.82830000
   0.94524000  0.77354000  0.71879000
   0.05476000  0.22646000  0.28121000
   0.27354000  0.44524000  0.71879000
   0.72646000  0.55476000  0.28121000
   0.55476000  0.27354000  0.82830000
   0.44524000  0.72646000  0.17170000
   0.50000000  0.00000000  0.50000000
   0.25000000  0.25000000  0.00000000
   0.75000000  0.75000000  0.00000000
   0.00000000  0.50000000  0.50000000
   0.50000000  0.50000000  0.00000000
   0.00000000  0.00000000  0.00000000

 position of ions in cartesian coordinates  (Angst):
  -1.15079557  4.77249893 -1.63788737
   4.24329574  0.27648221  3.16458574
   3.36534558  3.90558887  0.45233624
  -0.27284541  1.14339227  1.07436213
   0.40373178  2.24800836  2.74621705
   2.68876839  2.80097277 -1.21951868
   2.43984044  1.38109830  3.16458574
   0.65265973  3.66788284 -1.63788737
   2.83393419  0.00000000  1.91028959
   0.77312504  1.26224528 -1.14694041
   2.31937513  3.78673585 -3.44082122
  -1.28768410  2.52449057  1.91028959
   1.54625008  2.52449057 -2.29388082
   0.00000000  0.00000000  0.00000000

 k-point   1 :   0.0000 0.0000 0.0000  plane waves:    5875
 k-point   2 :   0.1429-0.0000 0.0000  plane waves:    5843
 k-point   3 :   0.0000 0.1429-0.1429  plane waves:    5843
 k-point   4 :   0.2857 0.0000 0.0000  plane waves:    5833
 k-point   5 :  -0.0000 0.2857-0.2857  plane waves:    5833
 k-point   6 :   0.4286 0.0000 0.0000  plane waves:    5847
 k-point   7 :  -0.0000 0.4286-0.4286  plane waves:    5847
 k-point   8 :   0.1429 0.1429 0.0000  plane waves:    5852
 k-point   9 :   0.0000 0.2857-0.1429  plane waves:    5852
 k-point  10 :   0.1429 0.1429-0.2857  plane waves:    5852
 k-point  11 :   0.2857 0.1429 0.0000  plane waves:    5838
 k-point  12 :   0.0000 0.4286-0.1429  plane waves:    5838
 k-point  13 :   0.1429 0.2857-0.4286  plane waves:    5838
 k-point  14 :   0.4286-0.0000-0.2857  plane waves:    5838
 k-point  15 :   0.4286 0.1429 0.0000  plane waves:    5849
 k-point  16 :   0.0000-0.4286-0.1429  plane waves:    5849
 k-point  17 :   0.1429 0.4286 0.4286  plane waves:    5849
 k-point  18 :  -0.4286-0.0000-0.4286  plane waves:    5849
 k-point  19 :  -0.4286 0.1429 0.0000  plane waves:    5834
 k-point  20 :   0.0000-0.2857-0.1429  plane waves:    5834
 k-point  21 :   0.1429-0.4286 0.2857  plane waves:    5834
 k-point  22 :  -0.2857 0.0000 0.4286  plane waves:    5834
 k-point  23 :  -0.2857 0.1429 0.0000  plane waves:    5842
 k-point  24 :   0.0000-0.1429-0.1429  plane waves:    5842
 k-point  25 :   0.1429-0.2857 0.1429  plane waves:    5842
 k-point  26 :  -0.1429 0.0000 0.2857  plane waves:    5842
 k-point  27 :  -0.1429 0.1429 0.0000  plane waves:    5843
 k-point  28 :   0.0000-0.0000-0.1429  plane waves:    5843
 k-point  29 :   0.2857 0.2857 0.0000  plane waves:    5831
 k-point  30 :  -0.0000-0.4286-0.2857  plane waves:    5831
 k-point  31 :   0.2857 0.2857 0.4286  plane waves:    5831
 k-point  32 :   0.4286 0.2857 0.0000  plane waves:    5839
 k-point  33 :  -0.0000-0.2857-0.2857  plane waves:    5839
 k-point  34 :   0.2857 0.4286 0.2857  plane waves:    5839
 k-point  35 :  -0.2857-0.0000-0.4286  plane waves:    5839
 k-point  36 :  -0.4286 0.2857 0.0000  plane waves:    5840
 k-point  37 :  -0.0000-0.1429-0.2857  plane waves:    5840
 k-point  38 :   0.2857-0.4286 0.1429  plane waves:    5840
 k-point  39 :  -0.1429 0.0000 0.4286  plane waves:    5840
 k-point  40 :  -0.2857 0.2857 0.0000  plane waves:    5829
 k-point  41 :  -0.0000-0.0000-0.2857  plane waves:    5829
 k-point  42 :   0.4286 0.4286 0.0000  plane waves:    5836
 k-point  43 :  -0.0000-0.1429-0.4286  plane waves:    5836
 k-point  44 :   0.4286 0.4286 0.1429  plane waves:    5836
 k-point  45 :  -0.4286 0.4286 0.0000  plane waves:    5836
 k-point  46 :  -0.0000-0.0000-0.4286  plane waves:    5836
 k-point  47 :   0.1429 0.1429 0.1429  plane waves:    5836
 k-point  48 :  -0.1429 0.4286-0.1429  plane waves:    5836
 k-point  49 :   0.1429 0.1429-0.4286  plane waves:    5836
 k-point  50 :   0.2857 0.1429 0.1429  plane waves:    5845
 k-point  51 :  -0.1429-0.4286-0.1429  plane waves:    5845
 k-point  52 :   0.1429 0.2857 0.4286  plane waves:    5845
 k-point  53 :  -0.4286-0.1429-0.2857  plane waves:    5845
 k-point  54 :  -0.1429 0.1429 0.1429  plane waves:    5821
 k-point  55 :   0.2857 0.2857 0.1429  plane waves:    5844
 k-point  56 :  -0.1429-0.2857-0.2857  plane waves:    5844
 k-point  57 :   0.2857 0.2857 0.2857  plane waves:    5844
 k-point  58 :   0.4286 0.2857 0.1429  plane waves:    5814
 k-point  59 :  -0.1429-0.1429-0.2857  plane waves:    5814
 k-point  60 :  -0.1429-0.1429-0.4286  plane waves:    5814
[...]
 k-point  86 :  -0.1429-0.2857 0.2857  plane waves:    5835
 k-point  87 :  -0.1429-0.1429 0.1429  plane waves:    5827
 k-point  88 :  -0.2857 0.2857 0.2857  plane waves:    5830
 k-point  89 :  -0.4286 0.4286 0.2857  plane waves:    5818
 k-point  90 :  -0.2857 0.2857-0.4286  plane waves:    5818
 k-point  91 :  -0.2857 0.4286 0.2857  plane waves:    5840
 k-point  92 :  -0.2857 0.4286-0.4286  plane waves:    5840
 k-point  93 :  -0.4286-0.4286 0.2857  plane waves:    5847
 k-point  94 :  -0.2857 0.4286 0.4286  plane waves:    5847
 k-point  95 :  -0.4286-0.4286-0.4286  plane waves:    5847
 k-point  96 :  -0.2857-0.4286 0.2857  plane waves:    5859
 k-point  97 :  -0.2857-0.4286 0.4286  plane waves:    5859
 k-point  98 :  -0.2857-0.2857 0.2857  plane waves:    5863
 k-point  99 :  -0.4286 0.4286 0.4286  plane waves:    5846
 k-point 100 :  -0.4286-0.4286 0.4286  plane waves:    5855

 maximum and minimum number of plane-waves per node :      2959     2875

 maximum number of plane-waves:      5875
 maximum index in each direction:
   IXMAX=   12   IYMAX=   12   IZMAX=   12
   IXMIN=  -12   IYMIN=  -12   IZMIN=  -12

 parallel 3D FFT for wavefunctions:
    minimum data exchange during FFTs selected (reduces bandwidth)
 parallel 3D FFT for charge:
    minimum data exchange during FFTs selected (reduces bandwidth)

 Broyden mixing: mesh for mixing (old mesh)
   NGX = 25   NGY = 25   NGZ = 25
  (NGX  =100   NGY  =100   NGZ  =100)
  gives a total of  15625 points

 initial charge density was supplied:
 charge density of overlapping atoms calculated
 number of electron      88.0000000 magnetization
 keeping initial charge density in first step

 Maximum index for augmentation-charges        21609 (set IRDMAX)

 First call to EWALD:  gamma=   0.317
 Maximum number of real-space cells 3x 3x 3
 Maximum number of reciprocal cells 3x 3x 3

--------------------------------------- Iteration      1(   1)  ---------------------------------------

 eigenvalue-minimisations  : 11400
 total energy-change (2. order) : 0.8311097E+03  (-0.5754662E+04)
 number of electron      88.0000000 magnetization
 augmentation part       88.0000000 magnetization

 Free energy of the ion-electron system (eV)
  alpha Z        PSCENC =       365.53315964
  Ewald energy   TEWEN  =     -5853.18840529
  -Hartree energ DENC   =     -2227.32181967
  -exchange      EXHF   =         0.00000000
  -V(xc)+E(xc)   XCENC  =       370.34130831
  PAW double counting   =      6445.14197187    -6413.54546859
  entropy T*S    EENTRO =        -0.00075451
  eigenvalues    EBANDS =       -80.47031199
  atomic energy  EATOM  =      8224.62000819
  free energy    TOTEN  =       831.10968795 eV

  energy without entropy =      831.11044246  energy(sigma->0) =      831.11006520

[...]

 eigenvalue-minimisations  : 12474
 total energy-change (2. order) :-0.9642921E+03  (-0.9444537E+03)
 number of electron      88.0000000 magnetization
 augmentation part       88.0000000 magnetization

[...]

 eigenvalue-minimisations  :     0
 total energy-change (2. order) : 0.1209934E+03  (-0.5763989E+02)
 number of electron      88.0000000 magnetization
 augmentation part        9.8036167 magnetization

[...]

 eigenvalue-minimisations  :     0
 total energy-change (2. order) :-0.4829963E-07  ( 0.4397567E-08)
 number of electron      88.0000000 magnetization
 augmentation part        9.2434963 magnetization

[...]

 eigenvalue-minimisations  :     0
 total energy-change (2. order) :-0.2585693E-07  ( 0.5995700E-08)
 number of electron      88.0000000 magnetization
 augmentation part        9.2435004 magnetization

[...]

--------------------------------------- Iteration      1(  39)  ---------------------------------------

 eigenvalue-minimisations  :     0
 total energy-change (2. order) :-0.2310117E-09  (-0.1184857E-09)
 number of electron      88.0000000 magnetization
 augmentation part        9.2434983 magnetization

 Free energy of the ion-electron system (eV)
  alpha Z        PSCENC =       365.53315964
  Ewald energy   TEWEN  =     -5853.18840529
  -Hartree energ DENC   =     -2220.59461744
  -exchange      EXHF   =         0.00000000
  -V(xc)+E(xc)   XCENC  =       383.08189194
  PAW double counting   =     19806.73329386   -19786.65464238
  entropy T*S    EENTRO =        -0.00200193
  eigenvalues    EBANDS =     -1050.97181297
  atomic energy  EATOM  =      8224.62000819
  free energy    TOTEN  =      -131.44312639 eV

  energy without entropy =     -131.44112446  energy(sigma->0) =     -131.44212542

  average scaling for gradient   0.7783

 average (electrostatic) potential at core
  the test charge radii are     0.7672  1.0818  0.9892
  (the norm of the test charge is              1.0000)
       1 -27.3259       2 -27.3259       3 -27.3259       4 -27.3259       5 -27.3259
       6 -27.3259       7 -27.3259       8 -27.3259       9 -79.3341      10 -79.6343
      11 -79.6343      12 -79.3341      13 -85.0162      14 -85.0162

 E-fermi :   6.7604     XC(G=0): -11.6466     alpha+bet :-14.9584

 Fermi energy:         6.7604268560

 k-point     1 :       0.0000    0.0000    0.0000
  band No.  band energies     occupation
      1     -55.9803      2.00000
      2     -55.9612      2.00000
      3     -55.5711      2.00000
      4     -55.5693      2.00000
      5     -30.7942      2.00000
      6     -30.6037      2.00000
      7     -29.5100      2.00000
      8     -29.5099      2.00000
      9     -29.1624      2.00000
     10     -29.1623      2.00000
     11     -29.1548      2.00000
     12     -29.1548      2.00000
     13     -29.1036      2.00000
     14     -29.1036      2.00000
     15     -29.0039      2.00000
     16     -28.9678      2.00000
     17      -8.0500      2.00000
     18      -5.8271      2.00000
     19      -3.6296      2.00000
     20      -3.6295      2.00000
     21      -1.7297      2.00000
     22      -1.7296      2.00000
     23      -1.0222      2.00000
     24      -0.8722      2.00000
     25       0.5606      2.00000
     26       0.6051      2.00000
     27       1.2457      2.00000
     28       2.1197      2.00000
     29       2.2846      2.00000
     30       2.2846      2.00000
     31       3.1299      2.00000
     32       3.1301      2.00000
     33       3.9818      2.00000
     34       3.9821      2.00000
     35       3.9893      2.00000
     36       4.2914      2.00000
     37       4.3924      2.00000
     38       5.2547      2.00000
     39       5.4693      2.00000
     40       5.5773      2.00000
     41       5.7481      2.00000
     42       6.6819      2.00000
     43       6.7856      0.07497
     44       6.7857      0.07436
     45       7.0753      0.00000
     46       7.1668      0.00000
     47       7.4736      0.00000
     48       7.4737      0.00000
     49       8.2701      0.00000
     50       9.2945      0.00000
     51       9.6572      0.00000
     52      10.1898      0.00000
     53      10.3596      0.00000
     54      10.5298      0.00000

[...]

 k-point   100 :      -0.4286   -0.4286    0.4286
  band No.  band energies     occupation
      1     -55.9793      2.00000
      2     -55.9622      2.00000
      3     -55.5709      2.00000
      4     -55.5694      2.00000
      5     -30.7853      2.00000
      6     -30.6130      2.00000
      7     -29.5104      2.00000
      8     -29.5102      2.00000
      9     -29.1661      2.00000
     10     -29.1661      2.00000
     11     -29.1539      2.00000
     12     -29.1539      2.00000
     13     -29.1006      2.00000
     14     -29.1005      2.00000
     15     -29.0024      2.00000
     16     -28.9695      2.00000
     17      -7.6399      2.00000
     18      -6.4252      2.00000
     19      -2.9658      2.00000
     20      -2.9657      2.00000
     21      -2.7807      2.00000
     22      -2.7805      2.00000
     23      -0.9836      2.00000
     24      -0.2130      2.00000
     25       0.3537      2.00000
     26       0.9626      2.00000
     27       1.2761      2.00000
     28       1.4301      2.00000
     29       1.9912      2.00000
     30       1.9913      2.00000
     31       3.5315      2.00000
     32       4.0018      2.00000
     33       4.0019      2.00000
     34       4.4474      2.00000
     35       4.4476      2.00000
     36       4.6963      2.00000
     37       4.6984      2.00000
     38       4.9567      2.00000
     39       5.5965      2.00000
     40       5.6149      2.00000
     41       5.6205      2.00000
     42       5.7398      2.00000
     43       6.6906      2.00000
     44       6.6907      2.00000
     45       6.8563      0.00000
     46       8.0690      0.00000
     47       8.0692      0.00000
     48       8.3005      0.00000
     49       8.6400      0.00000
     50       8.6759      0.00000
     51       8.6761      0.00000
     52       8.8907      0.00000
     53       9.6941      0.00000
     54       9.7118      0.00000

 soft charge-density along one line, spin component           1
         0         1         2         3         4         5         6         7         8         9
 total charge-density along one line

------------------------ aborting loop because EDIFF is reached ----------------------------------------

  FREE ENERGIE OF THE ION-ELECTRON SYSTEM (eV)
  free  energy   TOTEN  =      -131.44312639 eV

  energy  without entropy=     -131.44112446  energy(sigma->0) =     -131.44212542

 writing wavefunctions