 vasp.6.2.0 18Jan21 (build Jan 05 2022 15:41:44) complex

 executed on             LinuxIFC date 2025.05.07  16:11:16

 INCAR:
   SYSTEM = routine with relax: pwdword
   ICHARG = 2
   NPAR = 6
   KPAR = 2
   NCORE = 2
   ADDGRID = T
   PREC = Acc
   ENCUT = 600
   METAGGA = R2SCAN
   LASPH = .TRUE.
   LMIXTAU = .FALSE.
   ALGO = A
   EDIFF = 1E-9
   NELM = 100
   NELMIN = 6
   IALGO = 38
   LREAL = F
   NSW = 0
   ISIF = -1
   ISMEAR = 0
   SIGMA = 0.02
   SYMPREC = 1E-4

 POTCAR:    PAW_PBE B 06Sep2000
 POTCAR:    PAW_PBE Mo_sv 02Feb2006
 POTCAR:    PAW_PBE Si 05Jan2001
|           W    W    AA    RRRRR   N    N  II  N    N   GGGG   !!!           |
|           W    W   A  A   R    R  NN   N  II  NN   N  G    G  !!!           |
|           W    W  A    A  R    R  N N  N  II  N N  N  G       !!!           |
|           W WW W  AAAAAA  RRRRR   N  N N  II  N  N N  G  GGG   !            |
|           WW  WW  A    A  R   R   N   NN  II  N   NN  G    G                |
|           W    W  A    A  R    R  N    N  II  N    N   GGGG   !!!           |
|     For optimal performance we recommend to set                             |
|       NCORE = 2 up to number-of-cores-per-socket                            |
|     This setting can greatly improve the performance of VASP for DFT.       |
|     The default, NCORE=1 might be grossly inefficient on modern             |
|     multi-core architectures or massively parallel machines. Do your        |
|     Unfortunately you need to use the default for GW and RPA                |
|     calculations (for HF NCORE is supported but not extensively tested      |
|     yet).                                                                   |

 POTCAR:    PAW_PBE B 06Sep2000
   VRHFIN =B: s2p1

   TITEL  = PAW_PBE B 06Sep2000
   POMASS =   10.811; ZVAL   =    3.000    mass and valenz
   ENMAX  =  318.614; ENMIN  =  238.960 eV

 POTCAR:    PAW_PBE Mo_sv 02Feb2006
   VRHFIN =Mo: 4p5s4d

   TITEL  = PAW_PBE Mo_sv 02Feb2006
   POMASS =   95.940; ZVAL   =   14.000    mass and valenz
   ENMAX  =  242.676; ENMIN  =  182.007 eV

 POTCAR:    PAW_PBE Si 05Jan2001
   VRHFIN =Si: s2p2

   TITEL  = PAW_PBE Si 05Jan2001
   POMASS =   28.085; ZVAL   =    4.000    mass and valenz
   ENMAX  =  245.345; ENMIN  =  184.009 eV

  PAW_PBE B 06Sep2000                   :
  PAW_PBE Mo_sv 02Feb2006               :
  PAW_PBE Si 05Jan2001                  :

 POSCAR: EA72
  positions in direct lattice

 METAGGA = R2SCA    LMAXTAU =  6    LMIXTAU =  F

 ion  position               nearest neighbor table
   1  0.000  0.500  0.500-   4 2.28   6 2.28
   2  0.500  0.000  0.500-   4 2.28   6 2.28
   3  0.250  0.250  0.000-   7 2.28   8 2.28   4 3.22   6 3.22   4 3.22   6 3.22
   4  0.250  0.750  0.500-   1 2.28   2 2.28   3 3.22   5 3.22   3 3.22   5 3.22
   5  0.750  0.750  0.000-   7 2.28   8 2.28   4 3.22   6 3.22   6 3.22   4 3.22
   6  0.750  0.250  0.500-   1 2.28   2 2.28   3 3.22   5 3.22   5 3.22   3 3.22
   7  0.000  0.000  0.000-   3 2.28   5 2.28
   8  0.500  0.500  0.000-   3 2.28   5 2.28

  LATTYP: Found a body centered tetragonal cell.
 ALAT       =     6.4495496140
 C/A-ratio  =     1.4150621342

  Lattice vectors:

 A1 = (   5.5860365530,   0.0000000000,  -3.2277000912)
 A2 = (  -1.8605815113,   5.2670713695,  -3.2277000912)
 A3 = (   0.0000000000,   0.0000000000,   6.4515000000)

Analysis of symmetry for initial positions (statically):
 Subroutine PRICEL returns following result:

  LATTYP: Found a simple tetragonal cell.
 ALAT       =     4.5605416731
 C/A-ratio  =     1.0005953345

[...]

   2 primitive cells build up your supercell.

 Routine SETGRP: Setting up the symmetry group for a
 body centered tetragonal supercell.

 Subroutine GETGRP returns: Found 16 space group operations
 (whereof 16 operations were pure point group operations)
 out of a pool of 16 trial point group operations.

The static configuration has the point symmetry D_4h.

Analysis of symmetry for dynamics (positions and initial velocities):
 Subroutine PRICEL returns following result:

  LATTYP: Found a simple tetragonal cell.
 ALAT       =     4.5605416731
 C/A-ratio  =     1.0005953345

  Lattice vectors:

 A1 = (   3.7233090322,  -2.6335356847,   0.0000000000)
 A2 = (   1.8627275208,   2.6335356847,   3.2237999088)
 A3 = (  -1.8627275208,  -2.6335356847,   3.2277000912)

   2 primitive cells build up your supercell.

 Routine SETGRP: Setting up the symmetry group for a
 body centered tetragonal supercell.

 Subroutine GETGRP returns: Found 16 space group operations
 (whereof 16 operations were pure point group operations)
 out of a pool of 16 trial point group operations.

The dynamic configuration has the point symmetry D_4h.

 Subroutine INISYM returns: Found 16 space group operations
 (whereof 16 operations are pure point group operations),
 and found     2 'primitive' translations

                                     Primitive cell

  volume of cell :      94.9082

  direct lattice vectors                    reciprocal lattice vectors
     3.723309032 -2.633535685  0.000000000     0.179017805 -0.126621178  0.000000000
     1.862727521  2.633535685  3.223799909     0.089563014  0.126624743  0.155002713
    -1.862727521 -2.633535685  3.227700091    -0.089454791 -0.126471736  0.155002713

  length of vectors
     4.560541673  4.560498862  4.563256721     0.219272199  0.219274257  0.219141736

  position of ions in fractional coordinates (direct lattice)
     0.500000000  0.500000000  0.000000000
     1.000000000  1.000000000  0.500000000
     0.500000000  0.500000000  0.500000000
     0.000000000  0.000000000  0.000000000

  ion indices of the primitive-cell ions
   primitive index   ion index
                 1           1
                 2           3
                 3           4
                 4           7

 KPOINTS: EA

Automatic generation of k-mesh.
 Grid dimensions read from file:
 generate k-points for:    7    7    8

 Generating k-lattice:

  Cartesian coordinates                     Fractional coordinates (reciprocal lattice)
     0.025573972  0.009033950  0.000000000     0.142857143  0.000000000  0.000000000
     0.000000000  0.027122690  0.000000000     0.000000000  0.142857143  0.000000000
     0.011195377  0.015828093  0.019375339     0.000000000 -0.000000000  0.125000000

  Length of vectors
     0.027122690  0.027122690  0.027409282

  Shift w.r.t. Gamma in fractional coordinates (k-lattice)
     0.000000000  0.000000000  0.000000000

 WARNING: IBZKPT: internal override: KBLOWUP is changed to .FALSE.
      ... skipping the blow-up phase ...

 Subroutine IBZKPT returns following result:

 Found    116 irreducible k-points:

 Following reciprocal coordinates:
            Coordinates               Weight
  0.000000  0.000000  0.000000      1.000000
  0.142857  0.000000  0.000000      4.000000
  0.285714  0.000000  0.000000      4.000000
  0.428571  0.000000  0.000000      4.000000
  0.142857  0.142857  0.000000      2.000000
  0.285714  0.142857  0.000000      4.000000
  0.428571  0.142857  0.000000      4.000000
 -0.428571  0.142857  0.000000      4.000000
 -0.285714  0.142857  0.000000      4.000000
 -0.142857  0.142857  0.000000      2.000000
  0.285714  0.285714  0.000000      2.000000
  0.428571  0.285714  0.000000      4.000000
 -0.428571  0.285714  0.000000      4.000000
 -0.285714  0.285714  0.000000      2.000000
  0.428571  0.428571  0.000000      2.000000
 -0.428571  0.428571  0.000000      2.000000
  0.000000  0.000000  0.125000      2.000000
  0.142857  0.000000  0.125000      4.000000
  0.285714 -0.000000  0.125000      4.000000
  0.428571 -0.000000  0.125000      4.000000
 -0.428571  0.000000  0.125000      4.000000
 -0.285714 -0.000000  0.125000      4.000000
 -0.142857  0.000000  0.125000      4.000000
  0.142857  0.142857  0.125000      2.000000
  0.285714  0.142857  0.125000      4.000000
  0.428571  0.142857  0.125000      4.000000
 -0.428571  0.142857  0.125000      4.000000
 -0.285714  0.142857  0.125000      4.000000
 -0.142857  0.142857  0.125000      4.000000
  0.285714  0.285714  0.125000      2.000000
  0.428571  0.285714  0.125000      4.000000
 -0.428571  0.285714  0.125000      4.000000
 -0.285714  0.285714  0.125000      4.000000
 -0.142857  0.285714  0.125000      4.000000
  0.428571  0.428571  0.125000      2.000000
 -0.428571  0.428571  0.125000      4.000000
 -0.285714  0.428571  0.125000      4.000000
 -0.142857  0.428571  0.125000      4.000000
 -0.428571 -0.428571  0.125000      2.000000
 -0.285714 -0.428571  0.125000      4.000000
 -0.142857 -0.428571  0.125000      4.000000
 -0.285714 -0.285714  0.125000      2.000000
 -0.142857 -0.285714  0.125000      4.000000
 -0.142857 -0.142857  0.125000      2.000000
  0.000000  0.000000  0.250000      2.000000
  0.142857  0.000000  0.250000      4.000000
  0.285714  0.000000  0.250000      4.000000
  0.428571  0.000000  0.250000      4.000000
 -0.428571  0.000000  0.250000      4.000000
 -0.285714  0.000000  0.250000      4.000000
 -0.142857  0.000000  0.250000      4.000000
  0.142857  0.142857  0.250000      2.000000
  0.285714  0.142857  0.250000      4.000000
  0.428571  0.142857  0.250000      4.000000
 -0.428571  0.142857  0.250000      4.000000
 -0.285714  0.142857  0.250000      4.000000
 -0.142857  0.142857  0.250000      4.000000
  0.285714  0.285714  0.250000      2.000000
  0.428571  0.285714  0.250000      4.000000
 -0.428571  0.285714  0.250000      4.000000
[...]
  0.142857  0.000000  0.500000      4.000000
  0.285714  0.000000  0.500000      4.000000
  0.428571  0.000000  0.500000      4.000000
  0.142857  0.142857  0.500000      2.000000
  0.285714  0.142857  0.500000      4.000000
  0.428571  0.142857  0.500000      4.000000
 -0.428571  0.142857  0.500000      4.000000
 -0.285714  0.142857  0.500000      4.000000
 -0.142857  0.142857  0.500000      2.000000
  0.285714  0.285714  0.500000      2.000000
  0.428571  0.285714  0.500000      4.000000
 -0.428571  0.285714  0.500000      4.000000
 -0.285714  0.285714  0.500000      2.000000
  0.428571  0.428571  0.500000      2.000000
 -0.428571  0.428571  0.500000      2.000000

 Following cartesian coordinates:
            Coordinates               Weight
  0.000000  0.000000  0.000000      1.000000
  0.025574  0.009034  0.000000      4.000000
  0.051148  0.018068  0.000000      4.000000
  0.076722  0.027102  0.000000      4.000000
  0.025574  0.036157  0.000000      2.000000
  0.051148  0.045191  0.000000      4.000000
  0.076722  0.054225  0.000000      4.000000
 -0.076722  0.000021  0.000000      4.000000
 -0.051148  0.009055  0.000000      4.000000
 -0.025574  0.018089  0.000000      2.000000
  0.051148  0.072313  0.000000      2.000000
  0.076722  0.081347  0.000000      4.000000
 -0.076722  0.027144  0.000000      4.000000
 -0.051148  0.036177  0.000000      2.000000
  0.076722  0.108470  0.000000      2.000000
 -0.076722  0.054266  0.000000      2.000000
  0.011195  0.015828  0.019375      2.000000
  0.036769  0.024862  0.019375      4.000000
  0.062343  0.033896  0.019375      4.000000
  0.087917  0.042930  0.019375      4.000000
 -0.065527 -0.011274  0.019375      4.000000
 -0.039953 -0.002240  0.019375      4.000000
[...]
   0.09592945  0.10850296  0.07750136       0.010
   0.12150342  0.11753691  0.07750136       0.010
  -0.03194041  0.06333321  0.07750136       0.010
  -0.00636644  0.07236716  0.07750136       0.010
   0.01920753  0.08140111  0.07750136       0.005
   0.09592945  0.13562565  0.07750136       0.005
   0.12150342  0.14465960  0.07750136       0.010
  -0.03194041  0.09045590  0.07750136       0.010
  -0.00636644  0.09948985  0.07750136       0.005
   0.12150342  0.17178229  0.07750136       0.005
  -0.03194041  0.11757859  0.07750136       0.005

 k-points in reciprocal lattice and weights: EA
   0.00000000  0.00000000  0.00000000       0.003
   0.14285714  0.00000000  0.00000000       0.010
   0.28571429  0.00000000  0.00000000       0.010
   0.42857143  0.00000000  0.00000000       0.010
   0.14285714  0.14285714  0.00000000       0.005
   0.28571429  0.14285714  0.00000000       0.010
   0.42857143  0.14285714  0.00000000       0.010
  -0.42857143  0.14285714  0.00000000       0.010
  -0.28571429  0.14285714  0.00000000       0.010
  -0.14285714  0.14285714  0.00000000       0.005
   0.28571429  0.28571429  0.00000000       0.005
   0.42857143  0.28571429  0.00000000       0.010
  -0.42857143  0.28571429  0.00000000       0.010
  -0.28571429  0.28571429  0.00000000       0.005
   0.42857143  0.42857143  0.00000000       0.005
  -0.42857143  0.42857143  0.00000000       0.005
   0.00000000  0.00000000  0.12500000       0.005
   0.14285714  0.00000000  0.12500000       0.010
   0.28571429 -0.00000000  0.12500000       0.010
   0.42857143 -0.00000000  0.12500000       0.010
  -0.42857143  0.00000000  0.12500000       0.010
  -0.28571429 -0.00000000  0.12500000       0.010
  -0.14285714  0.00000000  0.12500000       0.010
   0.14285714  0.14285714  0.12500000       0.005
   0.28571429  0.14285714  0.12500000       0.010
   0.42857143  0.14285714  0.12500000       0.010
  -0.42857143  0.14285714  0.12500000       0.010
  -0.28571429  0.14285714  0.12500000       0.010
  -0.14285714  0.14285714  0.12500000       0.010
   0.28571429  0.28571429  0.12500000       0.005
   0.42857143  0.28571429  0.12500000       0.010
  -0.42857143  0.28571429  0.12500000       0.010
  -0.28571429  0.28571429  0.12500000       0.010
  -0.14285714  0.28571429  0.12500000       0.010
   0.42857143  0.42857143  0.12500000       0.005
  -0.42857143  0.42857143  0.12500000       0.010
  -0.28571429  0.42857143  0.12500000       0.010
  -0.14285714  0.42857143  0.12500000       0.010
  -0.42857143 -0.42857143  0.12500000       0.005
  -0.28571429 -0.42857143  0.12500000       0.010
  -0.14285714 -0.42857143  0.12500000       0.010
  -0.28571429 -0.28571429  0.12500000       0.005
  -0.14285714 -0.28571429  0.12500000       0.010
  -0.14285714 -0.14285714  0.12500000       0.005
   0.00000000  0.00000000  0.25000000       0.005
   0.14285714  0.00000000  0.25000000       0.010
   0.28571429  0.00000000  0.25000000       0.010
   0.42857143  0.00000000  0.25000000       0.010
  -0.42857143  0.00000000  0.25000000       0.010
  -0.28571429  0.00000000  0.25000000       0.010
  -0.14285714  0.00000000  0.25000000       0.010
   0.14285714  0.14285714  0.25000000       0.005
   0.28571429  0.14285714  0.25000000       0.010
   0.42857143  0.14285714  0.25000000       0.010
  -0.42857143  0.14285714  0.25000000       0.010
  -0.28571429  0.14285714  0.25000000       0.010
  -0.14285714  0.14285714  0.25000000       0.010
   0.28571429  0.28571429  0.25000000       0.005
   0.42857143  0.28571429  0.25000000       0.010
  -0.42857143  0.28571429  0.25000000       0.010
[...]
   0.14285714  0.00000000  0.50000000       0.010
   0.28571429  0.00000000  0.50000000       0.010
   0.42857143  0.00000000  0.50000000       0.010
   0.14285714  0.14285714  0.50000000       0.005
   0.28571429  0.14285714  0.50000000       0.010
   0.42857143  0.14285714  0.50000000       0.010
  -0.42857143  0.14285714  0.50000000       0.010
  -0.28571429  0.14285714  0.50000000       0.010
  -0.14285714  0.14285714  0.50000000       0.005
   0.28571429  0.28571429  0.50000000       0.005
   0.42857143  0.28571429  0.50000000       0.010
  -0.42857143  0.28571429  0.50000000       0.010
  -0.28571429  0.28571429  0.50000000       0.005
   0.42857143  0.42857143  0.50000000       0.005
  -0.42857143  0.42857143  0.50000000       0.005

 position of ions in fractional coordinates (direct lattice)
   0.00000000  0.50000000  0.50000000
   0.50000000  0.00000000  0.50000000
   0.25000000  0.25000000  0.00000000
   0.25000000  0.75000000  0.50000000
   0.75000000  0.75000000  0.00000000
   0.75000000  0.25000000  0.50000000
   0.00000000  0.00000000  0.00000000
   0.50000000  0.50000000  0.00000000

 position of ions in cartesian coordinates  (Angst):
  -0.93029076  2.63353568  1.61189995
   2.79301828  0.00000000  1.61189995
   0.93136376  1.31676784 -1.61385005
   0.00107300  3.95030353 -0.00195009
   2.79409128  3.95030353 -4.84155014
   3.72438204  1.31676784 -0.00195009
   0.00000000  0.00000000  0.00000000
   1.86272752  2.63353568 -3.22770009

 k-point   1 :   0.0000 0.0000 0.0000  plane waves:    6327
 k-point   2 :   0.1429 0.0000 0.0000  plane waves:    6310
 k-point   3 :   0.2857 0.0000 0.0000  plane waves:    6339
 k-point   4 :   0.4286 0.0000 0.0000  plane waves:    6346
 k-point   5 :   0.1429 0.1429 0.0000  plane waves:    6316
 k-point   6 :   0.2857 0.1429 0.0000  plane waves:    6334
 k-point   7 :   0.4286 0.1429 0.0000  plane waves:    6340
 k-point   8 :  -0.4286 0.1429 0.0000  plane waves:    6322
 k-point   9 :  -0.2857 0.1429 0.0000  plane waves:    6330
 k-point  10 :  -0.1429 0.1429 0.0000  plane waves:    6322
 k-point  11 :   0.2857 0.2857 0.0000  plane waves:    6353
 k-point  12 :   0.4286 0.2857 0.0000  plane waves:    6356
 k-point  13 :  -0.4286 0.2857 0.0000  plane waves:    6334
 k-point  14 :  -0.2857 0.2857 0.0000  plane waves:    6338
 k-point  15 :   0.4286 0.4286 0.0000  plane waves:    6351
 k-point  16 :  -0.4286 0.4286 0.0000  plane waves:    6340
 k-point  17 :   0.0000 0.0000 0.1250  plane waves:    6314
 k-point  18 :   0.1429 0.0000 0.1250  plane waves:    6322
 k-point  19 :   0.2857-0.0000 0.1250  plane waves:    6325
 k-point  20 :   0.4286-0.0000 0.1250  plane waves:    6338
 k-point  21 :  -0.4286 0.0000 0.1250  plane waves:    6332
 k-point  22 :  -0.2857-0.0000 0.1250  plane waves:    6317
 k-point  23 :  -0.1429 0.0000 0.1250  plane waves:    6314
 k-point  24 :   0.1429 0.1429 0.1250  plane waves:    6335
 k-point  25 :   0.2857 0.1429 0.1250  plane waves:    6329
 k-point  26 :   0.4286 0.1429 0.1250  plane waves:    6336
 k-point  27 :  -0.4286 0.1429 0.1250  plane waves:    6332
 k-point  28 :  -0.2857 0.1429 0.1250  plane waves:    6331
 k-point  29 :  -0.1429 0.1429 0.1250  plane waves:    6308
 k-point  30 :   0.2857 0.2857 0.1250  plane waves:    6347
 k-point  31 :   0.4286 0.2857 0.1250  plane waves:    6339
 k-point  32 :  -0.4286 0.2857 0.1250  plane waves:    6327
 k-point  33 :  -0.2857 0.2857 0.1250  plane waves:    6328
 k-point  34 :  -0.1429 0.2857 0.1250  plane waves:    6330
 k-point  35 :   0.4286 0.4286 0.1250  plane waves:    6350
 k-point  36 :  -0.4286 0.4286 0.1250  plane waves:    6336
 k-point  37 :  -0.2857 0.4286 0.1250  plane waves:    6331
 k-point  38 :  -0.1429 0.4286 0.1250  plane waves:    6346
 k-point  39 :  -0.4286-0.4286 0.1250  plane waves:    6346
 k-point  40 :  -0.2857-0.4286 0.1250  plane waves:    6335
 k-point  41 :  -0.1429-0.4286 0.1250  plane waves:    6323
 k-point  42 :  -0.2857-0.2857 0.1250  plane waves:    6336
 k-point  43 :  -0.1429-0.2857 0.1250  plane waves:    6329
 k-point  44 :  -0.1429-0.1429 0.1250  plane waves:    6313
 k-point  45 :   0.0000 0.0000 0.2500  plane waves:    6302
 k-point  46 :   0.1429 0.0000 0.2500  plane waves:    6329
 k-point  47 :   0.2857 0.0000 0.2500  plane waves:    6339
 k-point  48 :   0.4286 0.0000 0.2500  plane waves:    6345
 k-point  49 :  -0.4286 0.0000 0.2500  plane waves:    6334
 k-point  50 :  -0.2857 0.0000 0.2500  plane waves:    6320
 k-point  51 :  -0.1429 0.0000 0.2500  plane waves:    6319
 k-point  52 :   0.1429 0.1429 0.2500  plane waves:    6340
 k-point  53 :   0.2857 0.1429 0.2500  plane waves:    6343
 k-point  54 :   0.4286 0.1429 0.2500  plane waves:    6340
 k-point  55 :  -0.4286 0.1429 0.2500  plane waves:    6324
 k-point  56 :  -0.2857 0.1429 0.2500  plane waves:    6327
 k-point  57 :  -0.1429 0.1429 0.2500  plane waves:    6332
 k-point  58 :   0.2857 0.2857 0.2500  plane waves:    6330
 k-point  59 :   0.4286 0.2857 0.2500  plane waves:    6349
 k-point  60 :  -0.4286 0.2857 0.2500  plane waves:    6337
[...]
 k-point 102 :   0.1429 0.0000 0.5000  plane waves:    6337
 k-point 103 :   0.2857 0.0000 0.5000  plane waves:    6329
 k-point 104 :   0.4286 0.0000 0.5000  plane waves:    6334
 k-point 105 :   0.1429 0.1429 0.5000  plane waves:    6339
 k-point 106 :   0.2857 0.1429 0.5000  plane waves:    6335
 k-point 107 :   0.4286 0.1429 0.5000  plane waves:    6334
 k-point 108 :  -0.4286 0.1429 0.5000  plane waves:    6345
 k-point 109 :  -0.2857 0.1429 0.5000  plane waves:    6339
 k-point 110 :  -0.1429 0.1429 0.5000  plane waves:    6328
 k-point 111 :   0.2857 0.2857 0.5000  plane waves:    6343
 k-point 112 :   0.4286 0.2857 0.5000  plane waves:    6331
 k-point 113 :  -0.4286 0.2857 0.5000  plane waves:    6348
 k-point 114 :  -0.2857 0.2857 0.5000  plane waves:    6330
 k-point 115 :   0.4286 0.4286 0.5000  plane waves:    6336
 k-point 116 :  -0.4286 0.4286 0.5000  plane waves:    6352

 maximum and minimum number of plane-waves per node :      3192     3135

 maximum number of plane-waves:      6356
 maximum index in each direction:
   IXMAX=   13   IYMAX=   13   IZMAX=   12
   IXMIN=  -13   IYMIN=  -13   IZMIN=  -13

 parallel 3D FFT for wavefunctions:
    minimum data exchange during FFTs selected (reduces bandwidth)
 parallel 3D FFT for charge:
    minimum data exchange during FFTs selected (reduces bandwidth)

 Broyden mixing: mesh for mixing (old mesh)
   NGX = 25   NGY = 25   NGZ = 25
  (NGX  =108   NGY  =108   NGZ  =108)
  gives a total of  15625 points

 initial charge density was supplied:
 charge density of overlapping atoms calculated
 number of electron      70.0000000 magnetization
 keeping initial charge density in first step

 Maximum index for augmentation-charges        23492 (set IRDMAX)

 First call to EWALD:  gamma=   0.308
 Maximum number of real-space cells 3x 3x 3
 Maximum number of reciprocal cells 3x 3x 3

--------------------------------------- Iteration      1(   1)  ---------------------------------------

 eigenvalue-minimisations  : 11136
 total energy-change (2. order) : 0.5867057E+03  (-0.4463502E+04)
 number of electron      70.0000000 magnetization
 augmentation part       70.0000000 magnetization

 Free energy of the ion-electron system (eV)
  alpha Z        PSCENC =       217.29395884
  Ewald energy   TEWEN  =     -5055.61006098
  -Hartree energ DENC   =     -2308.72188233
  -exchange      EXHF   =         0.00000000
  -V(xc)+E(xc)   XCENC  =       302.51868737
  PAW double counting   =      6194.65714934    -6160.44322926
  entropy T*S    EENTRO =        -0.00057815
  eigenvalues    EBANDS =      -400.59071565
  atomic energy  EATOM  =      7797.60240368
  free energy    TOTEN  =       586.70573286 eV

  energy without entropy =      586.70631101  energy(sigma->0) =      586.70602193

[...]

 eigenvalue-minimisations  : 11154
 total energy-change (2. order) :-0.7014568E+03  (-0.6861580E+03)
 number of electron      70.0000000 magnetization
 augmentation part       70.0000000 magnetization

[...]

 eigenvalue-minimisations  :     0
 total energy-change (2. order) :-0.5204129E-08  (-0.1225905E-08)
 number of electron      70.0000000 magnetization
 augmentation part        9.1946691 magnetization

[...]

--------------------------------------- Iteration      1(  49)  ---------------------------------------

 eigenvalue-minimisations  :     0
 total energy-change (2. order) : 0.2910383E-10  (-0.6760604E-09)
 number of electron      70.0000000 magnetization
 augmentation part        9.1946687 magnetization

 Free energy of the ion-electron system (eV)
  alpha Z        PSCENC =       217.29395884
  Ewald energy   TEWEN  =     -5055.61006098
  -Hartree energ DENC   =     -2209.30133662
  -exchange      EXHF   =         0.00000000
  -V(xc)+E(xc)   XCENC  =       307.03028182
  PAW double counting   =      6915.20243176    -6892.46972259
  entropy T*S    EENTRO =        -0.00203036
  eigenvalues    EBANDS =     -1196.76803457
  atomic energy  EATOM  =      7797.60240368
  free energy    TOTEN  =      -117.02210901 eV

  energy without entropy =     -117.02007865  energy(sigma->0) =     -117.02109383

  average scaling for gradient   0.8721

 average (electrostatic) potential at core
  the test charge radii are     0.7672  1.0818  0.9892
  (the norm of the test charge is              1.0000)
       1 -30.5966       2 -30.5966       3 -82.6589       4 -83.2451       5 -82.6589
       6 -83.2451       7 -88.2695       8 -88.2695

 E-fermi :   3.8331     XC(G=0): -10.2891     alpha+bet :-10.2807

 Fermi energy:         3.8330625072

 k-point     1 :       0.0000    0.0000    0.0000
  band No.  band energies     occupation
      1     -59.1548      2.00000
      2     -59.1543      2.00000
      3     -58.6614      2.00000
      4     -58.6612      2.00000
      5     -32.4661      2.00000
      6     -32.4655      2.00000
      7     -32.4604      2.00000
      8     -32.4603      2.00000
      9     -32.4507      2.00000
     10     -32.4505      2.00000
     11     -32.1064      2.00000
     12     -32.0912      2.00000
     13     -32.0053      2.00000
     14     -32.0052      2.00000
     15     -31.9999      2.00000
     16     -31.9998      2.00000
     17      -4.8860      2.00000
     18      -2.0430      2.00000
     19      -1.8747      2.00000
     20      -1.0681      2.00000
     21       0.2231      2.00000
     22       0.3884      2.00000
     23       0.3884      2.00000
     24       0.7831      2.00000
     25       1.2659      2.00000
     26       2.1368      2.00000
     27       2.2741      2.00000
     28       2.3344      2.00000
     29       2.3916      2.00000
     30       3.0744      2.00000
     31       3.0745      2.00000
     32       3.3097      2.00000
     33       3.3097      2.00000
     34       3.5924      2.00000
     35       4.2136      0.00000
     36       4.2136      0.00000
     37       4.6220      0.00000
     38       4.6816      0.00000
     39       4.6817      0.00000
     40       4.8492      0.00000
     41       5.4207      0.00000
     42       5.4285      0.00000

[...]

 k-point   116 :      -0.4286    0.4286    0.5000
  band No.  band energies     occupation
      1     -59.1549      2.00000
      2     -59.1542      2.00000
      3     -58.6618      2.00000
      4     -58.6609      2.00000
      5     -32.4670      2.00000
      6     -32.4647      2.00000
      7     -32.4596      2.00000
      8     -32.4594      2.00000
      9     -32.4494      2.00000
     10     -32.4494      2.00000
     11     -32.1058      2.00000
     12     -32.0918      2.00000
     13     -32.0061      2.00000
     14     -32.0060      2.00000
     15     -32.0013      2.00000
     16     -32.0011      2.00000
     17      -3.8945      2.00000
     18      -3.3951      2.00000
     19      -2.6676      2.00000
     20      -0.4536      2.00000
     21       0.1456      2.00000
     22       1.0249      2.00000
     23       1.3292      2.00000
     24       1.4090      2.00000
     25       1.4211      2.00000
     26       1.6598      2.00000
     27       1.6627      2.00000
     28       2.2287      2.00000
     29       2.2906      2.00000
     30       2.3604      2.00000
     31       2.4652      2.00000
     32       2.6324      2.00000
     33       2.6380      2.00000
     34       3.8657      0.02095
     35       3.8779      0.00152
     36       4.5826      0.00000
     37       4.7565      0.00000
     38       4.7583      0.00000
     39       4.7831      0.00000
     40       5.0494      0.00000
     41       5.2879      0.00000
     42       5.8272      0.00000

 soft charge-density along one line, spin component           1
         0         1         2         3         4         5         6         7         8         9
 total charge-density along one line

------------------------ aborting loop because EDIFF is reached ----------------------------------------

  FREE ENERGIE OF THE ION-ELECTRON SYSTEM (eV)
  free  energy   TOTEN  =      -117.02210901 eV

  energy  without entropy=     -117.02007865  energy(sigma->0) =     -117.02109383

 writing wavefunctions