 vasp.6.2.0 18Jan21 (build Jan 05 2022 15:41:44) complex

 executed on             LinuxIFC date 2025.05.07  21:30:27

 INCAR:
   SYSTEM = routine with relax: pwdword
   ICHARG = 2
   NPAR = 6
   KPAR = 2
   NCORE = 2
   ADDGRID = T
   PREC = Acc
   ENCUT = 600
   METAGGA = R2SCAN
   LASPH = .TRUE.
   LMIXTAU = .FALSE.
   ALGO = A
   EDIFF = 1E-9
   NELM = 100
   NELMIN = 6
   IALGO = 38
   LREAL = F
   NSW = 0
   ISIF = -1
   ISMEAR = 0
   SIGMA = 0.02

 POTCAR:    PAW_PBE B 06Sep2000
 POTCAR:    PAW_PBE Si 05Jan2001
|           W    W    AA    RRRRR   N    N  II  N    N   GGGG   !!!           |
|           W    W   A  A   R    R  NN   N  II  NN   N  G    G  !!!           |
|           W    W  A    A  R    R  N N  N  II  N N  N  G       !!!           |
|           W WW W  AAAAAA  RRRRR   N  N N  II  N  N N  G  GGG   !            |
|           WW  WW  A    A  R   R   N   NN  II  N   NN  G    G                |
|           W    W  A    A  R    R  N    N  II  N    N   GGGG   !!!           |
|     For optimal performance we recommend to set                             |
|       NCORE = 2 up to number-of-cores-per-socket                            |
|     This setting can greatly improve the performance of VASP for DFT.       |
|     The default, NCORE=1 might be grossly inefficient on modern             |
|     multi-core architectures or massively parallel machines. Do your        |
|     Unfortunately you need to use the default for GW and RPA                |
|     calculations (for HF NCORE is supported but not extensively tested      |
|     yet).                                                                   |

 POTCAR:    PAW_PBE B 06Sep2000
   VRHFIN =B: s2p1

   TITEL  = PAW_PBE B 06Sep2000
   POMASS =   10.811; ZVAL   =    3.000    mass and valenz
   ENMAX  =  318.614; ENMIN  =  238.960 eV

 POTCAR:    PAW_PBE Si 05Jan2001
   VRHFIN =Si: s2p2

   TITEL  = PAW_PBE Si 05Jan2001
   POMASS =   28.085; ZVAL   =    4.000    mass and valenz
   ENMAX  =  245.345; ENMIN  =  184.009 eV

  PAW_PBE B 06Sep2000                   :
  PAW_PBE Si 05Jan2001                  :

 POSCAR: EA262
  positions in direct lattice

 METAGGA = R2SCA    LMAXTAU =  6    LMIXTAU =  F

 ion  position               nearest neighbor table
   1  0.800  0.500  0.500-   2 1.65   3 1.75   4 1.75   5 1.75   6 1.75
   2  0.200  0.500  0.500-   1 1.65   3 1.75   4 1.75   5 1.75   6 1.75
   3  0.500  0.500  0.800-   4 1.65   2 1.75   1 1.75   5 1.75   6 1.75
   4  0.500  0.500  0.200-   3 1.65   2 1.75   1 1.75   5 1.75   6 1.75
   5  0.500  0.200  0.500-   6 1.65   2 1.75   3 1.75   4 1.75   1 1.75
   6  0.500  0.800  0.500-   5 1.65   2 1.75   3 1.75   4 1.75   1 1.75
   7  0.000  0.000  0.000-

  LATTYP: Found a simple cubic cell.
 ALAT       =     4.1335480000

  Lattice vectors:

 A1 = (   4.1335480000,   0.0000000000,   0.0000000000)
 A2 = (   0.0000000000,   4.1335480000,   0.0000000000)
 A3 = (   0.0000000000,   0.0000000000,   4.1335480000)

Analysis of symmetry for initial positions (statically):
 Subroutine PRICEL returns:
 Original cell was already a primitive cell.

 Routine SETGRP: Setting up the symmetry group for a
 simple cubic supercell.

 Subroutine GETGRP returns: Found 48 space group operations
 (whereof 48 operations were pure point group operations)
 out of a pool of 48 trial point group operations.

The static configuration has the point symmetry O_h .

Analysis of symmetry for dynamics (positions and initial velocities):
 Subroutine PRICEL returns:
 Original cell was already a primitive cell.

 Routine SETGRP: Setting up the symmetry group for a
 simple cubic supercell.

 Subroutine GETGRP returns: Found 48 space group operations
 (whereof 48 operations were pure point group operations)
 out of a pool of 48 trial point group operations.

The dynamic configuration has the point symmetry O_h .

 Subroutine INISYM returns: Found 48 space group operations
 (whereof 48 operations are pure point group operations),
 and found     1 'primitive' translations

                                     Primitive cell

  volume of cell :      70.6267

  direct lattice vectors                    reciprocal lattice vectors
     4.133548000  0.000000000  0.000000000     0.241922919  0.000000000  0.000000000
     0.000000000  4.133548000  0.000000000     0.000000000  0.241922919  0.000000000
     0.000000000  0.000000000  4.133548000     0.000000000  0.000000000  0.241922919

  length of vectors
     4.133548000  4.133548000  4.133548000     0.241922919  0.241922919  0.241922919

  position of ions in fractional coordinates (direct lattice)
     0.799960000  0.500000000  0.500000000
     0.200040000  0.500000000  0.500000000
     0.500000000  0.500000000  0.799960000
     0.500000000  0.500000000  0.200040000
     0.500000000  0.200040000  0.500000000
     0.500000000  0.799960000  0.500000000
     0.000000000  0.000000000  0.000000000

  ion indices of the primitive-cell ions
   primitive index   ion index
                 1           1
                 2           2
                 3           3
                 4           4
                 5           5
                 6           6
                 7           7

 KPOINTS: EA

Automatic generation of k-mesh.
 Grid dimensions read from file:
 generate k-points for:    9    9    9

 Generating k-lattice:

  Cartesian coordinates                     Fractional coordinates (reciprocal lattice)
     0.026880324  0.000000000  0.000000000     0.111111111  0.000000000  0.000000000
     0.000000000  0.026880324  0.000000000     0.000000000  0.111111111  0.000000000
     0.000000000  0.000000000  0.026880324     0.000000000  0.000000000  0.111111111

  Length of vectors
     0.026880324  0.026880324  0.026880324

  Shift w.r.t. Gamma in fractional coordinates (k-lattice)
     0.000000000  0.000000000  0.000000000

 Subroutine IBZKPT returns following result:

 Found     35 irreducible k-points:

 Following reciprocal coordinates:
            Coordinates               Weight
  0.000000  0.000000  0.000000      1.000000
  0.111111  0.000000  0.000000      6.000000
  0.222222  0.000000  0.000000      6.000000
  0.333333  0.000000  0.000000      6.000000
  0.444444  0.000000  0.000000      6.000000
  0.111111  0.111111  0.000000     12.000000
  0.222222  0.111111  0.000000     24.000000
  0.333333  0.111111  0.000000     24.000000
  0.444444  0.111111  0.000000     24.000000
  0.222222  0.222222  0.000000     12.000000
  0.333333  0.222222  0.000000     24.000000
  0.444444  0.222222  0.000000     24.000000
  0.333333  0.333333  0.000000     12.000000
  0.444444  0.333333  0.000000     24.000000
  0.444444  0.444444  0.000000     12.000000
  0.111111  0.111111  0.111111      8.000000
  0.222222  0.111111  0.111111     24.000000
  0.333333  0.111111  0.111111     24.000000
  0.444444  0.111111  0.111111     24.000000
  0.222222  0.222222  0.111111     24.000000
  0.333333  0.222222  0.111111     48.000000
  0.444444  0.222222  0.111111     48.000000
  0.333333  0.333333  0.111111     24.000000
  0.444444  0.333333  0.111111     48.000000
  0.444444  0.444444  0.111111     24.000000
  0.222222  0.222222  0.222222      8.000000
  0.333333  0.222222  0.222222     24.000000
  0.444444  0.222222  0.222222     24.000000
  0.333333  0.333333  0.222222     24.000000
  0.444444  0.333333  0.222222     48.000000
  0.444444  0.444444  0.222222     24.000000
  0.333333  0.333333  0.333333      8.000000
  0.444444  0.333333  0.333333     24.000000
  0.444444  0.444444  0.333333     24.000000
  0.444444  0.444444  0.444444      8.000000

 Following cartesian coordinates:
            Coordinates               Weight
  0.000000  0.000000  0.000000      1.000000
  0.026880  0.000000  0.000000      6.000000
  0.053761  0.000000  0.000000      6.000000
  0.080641  0.000000  0.000000      6.000000
  0.107521  0.000000  0.000000      6.000000
  0.026880  0.026880  0.000000     12.000000
  0.053761  0.026880  0.000000     24.000000
  0.080641  0.026880  0.000000     24.000000
  0.107521  0.026880  0.000000     24.000000
  0.053761  0.053761  0.000000     12.000000
  0.080641  0.053761  0.000000     24.000000
  0.107521  0.053761  0.000000     24.000000
  0.080641  0.080641  0.000000     12.000000
  0.107521  0.080641  0.000000     24.000000
  0.107521  0.107521  0.000000     12.000000
  0.026880  0.026880  0.026880      8.000000
  0.053761  0.026880  0.026880     24.000000
  0.080641  0.026880  0.026880     24.000000
  0.107521  0.026880  0.026880     24.000000
  0.053761  0.053761  0.026880     24.000000
  0.080641  0.053761  0.026880     48.000000
  0.107521  0.053761  0.026880     48.000000
  0.080641  0.080641  0.026880     24.000000
  0.107521  0.080641  0.026880     48.000000
  0.107521  0.107521  0.026880     24.000000
  0.053761  0.053761  0.053761      8.000000
  0.080641  0.053761  0.053761     24.000000
  0.107521  0.053761  0.053761     24.000000
  0.080641  0.080641  0.053761     24.000000
  0.107521  0.080641  0.053761     48.000000
  0.107521  0.107521  0.053761     24.000000
  0.080641  0.080641  0.080641      8.000000
  0.107521  0.080641  0.080641     24.000000
  0.107521  0.107521  0.080641     24.000000
  0.107521  0.107521  0.107521      8.000000

 SYSTEM =  routine with relax: pwdword
 POSCAR =  EA262

 Startparameter for this run:
   NWRITE =      2    write-flag & timer
   PREC   = acc       normal or accurate (medium, high low for compatibility)
   ISTART =      0    job   : 0-new  1-cont  2-samecut
   ICHARG =      2    charge: 1-file 2-atom 10-const
   ISPIN  =      1    spin polarized calculation?
   LNONCOLLINEAR =      F non collinear calculations
   LSORBIT =      F    spin-orbit coupling
   INIWAV =      1    electr: 0-lowe 1-rand  2-diag
   LASPH  =      T    aspherical Exc in radial PAW
   METAGGA=      F    non-selfconsistent MetaGGA calc.

 Electronic Relaxation 1
   ENCUT  =  600.0 eV  44.10 Ry    6.64 a.u.   8.26  8.26  8.26*2*pi/ulx,y,z
   ENINI  =  600.0     initial cutoff
   ENAUG  =  535.5 eV  augmentation charge cutoff
   NELM   =    100;   NELMIN=  6; NELMDL= -5     # of ELM steps
   EDIFF  = 0.1E-08   stopping-criterion for ELM
   LREAL  =      F    real-space projection
   NLSPLINE    = F    spline interpolate recip. space projectors
   LCOMPAT=      F    compatible to vasp.4.4
   GGA_COMPAT  = T    GGA compatible to vasp.4.4-vasp.4.6
   LMAXPAW     = -100 max onsite density
   LMAXMIX     =    2 max onsite mixed and CHGCAR
   VOSKOWN=      0    Vosko Wilk Nusair interpolation
   ROPT   =    0.00000   0.00000
 Ionic relaxation
   EDIFFG = 0.1E-07   stopping-criterion for IOM
   NSW    =      0    number of steps for IOM
   NBLOCK =      1;   KBLOCK =      1    inner block; outer block
   IBRION =     -1    ionic relax: 0-MD 1-quasi-New 2-CG
   NFREE  =      0    steps in history (QN), initial steepest desc. (CG)
   ISIF   =     -1    stress and relaxation
   IWAVPR =     10    prediction:  0-non 1-charg 2-wave 3-comb
   ISYM   =      2    0-nonsym 1-usesym 2-fastsym
   LCORR  =      T    Harris-Foulkes like correction to forces

   POTIM  = 0.5000    time-step for ionic-motion
   TEIN   =    0.0    initial temperature
[...]

 DOS related values:
   EMIN   =  10.00;   EMAX   =-10.00  energy-range for DOS
   EFERMI =   0.00
   ISMEAR =     0;   SIGMA  =   0.02  broadening in eV -4-tet -1-fermi 0-gaus

 Electronic relaxation 2 (details)
   IALGO  =     58    algorithm
   LDIAG  =      T    sub-space diagonalisation (order eigenvalues)
   LSUBROT=      F    optimize rotation matrix (better conditioning)
   TURBO    =      0    0=normal 1=particle mesh
   IRESTART =      0    0=no restart 2=restart with 2 vectors
   NREBOOT  =      0    no. of reboots
   NMIN     =      0    reboot dimension
   EREF     =   0.00    reference energy to select bands
   IMIX   =      4    mixing-type and parameters
     AMIX     =   0.40;   BMIX     =  1.00
     AMIX_MAG =   1.60;   BMIX_MAG =  1.00
     AMIN     =   0.10
     WC   =   100.;   INIMIX=   1;  MIXPRE=   1;  MAXMIX= -45

 Intra band minimization:
   WEIMIN = 0.0000     energy-eigenvalue tresh-hold
   EBREAK =  0.14E-10  absolut break condition
   DEPER  =   0.30     relativ break condition

   TIME   =   0.40     timestep for ELM

  volume/ion in A,a.u.               =      10.09        68.09
  Fermi-wavevector in a.u.,A,eV,Ry     =   1.109752  2.097128 16.756259  1.231550
  Thomas-Fermi vector in A             =   2.246296

 Write flags
   LWAVE        =      T    write WAVECAR
   LDOWNSAMPLE  =      F    k-point downsampling of WAVECAR
   LCHARG       =      T    write CHGCAR
   LVTOT        =      F    write LOCPOT, total local potential
   LVHAR        =      F    write LOCPOT, Hartree potential only
   LELF         =      F    write electronic localiz. function (ELF)
   LORBIT       =      0    0 simple, 1 ext, 2 COOP (PROOUT), +10 PAW based schemes

 Dipole corrections
   LMONO  =      F    monopole corrections only (constant potential shift)
   LDIPOL =      F    correct potential (dipole corrections)
   IDIPOL =      0    1-x, 2-y, 3-z, 4-all directions
   EPSILON=  1.0000000 bulk dielectric constant

 Exchange correlation treatment:
   GGA     =    --    GGA type
   VOSKOWN=      0    Vosko Wilk Nusair interpolation
   LHFCALC =     F    Hartree Fock is set to
   LHFONE  =     F    Hartree Fock one center treatment
   AEXX    =    0.0000 exact exchange contribution

 Linear response parameters
   LEPSILON=     F    determine dielectric tensor
   LRPA    =     F    only Hartree local field effects (RPA)
   LNABLA  =     F    use nabla operator in PAW spheres
   LVEL    =     F    velocity operator in full k-point grid
   LINTERFAST=   F  fast interpolation
   KINTER  =     0    interpolate to denser k-point grid
   CSHIFT  =0.1000    complex shift for real part using Kramers Kronig
   OMEGAMAX=  -1.0    maximum frequency
   DEG_THRESHOLD= 0.2000000E-02 threshold for treating states as degnerate
   RTIME   =   -0.100 relaxation time in fs
  (WPLASMAI=    0.000 imaginary part of plasma frequency in eV, 0.658/RTIME)
   DFIELD  = 0.0000000 0.0000000 0.0000000 field for delta impulse in time

 Orbital magnetization related:
   ORBITALMAG=     F  switch on orbital magnetization
   LCHIMAG   =     F  perturbation theory with respect to B field
   DQ        =  0.001000  dq finite difference perturbation B field
   LLRAUG    =     F  two centre corrections for induced B field

 Static calculation
 charge density and potential will be updated during run
 non-spin polarized calculation
 Conjugate gradient for all bands (Freysoldt, et al. PRB 79, 241103 (2009))
 preconditioned conjugated gradient
 perform sub-space diagonalisation
    before iterative eigenvector-optimisation
 modified Broyden-mixing scheme, WC =      100.0
 initial mixing is a Kerker type mixing with AMIX =  0.4000 and BMIX =      1.0000
 Hartree-type preconditioning will be used
 using additional bands            7
 reciprocal scheme for non local part
 use partial core corrections
 no Harris-corrections to forces
 use gradient corrections
 use of overlap-Matrix (Vanderbilt PP)
 Gauss-broadening in eV      SIGMA  =   0.02

  energy-cutoff  :      600.00
  volume of cell :       70.63
      direct lattice vectors                 reciprocal lattice vectors
     4.133548000  0.000000000  0.000000000     0.241922919  0.000000000  0.000000000
     0.000000000  4.133548000  0.000000000     0.000000000  0.241922919  0.000000000
     0.000000000  0.000000000  4.133548000     0.000000000  0.000000000  0.241922919

  length of vectors
     4.133548000  4.133548000  4.133548000     0.241922919  0.241922919  0.241922919

 k-points in units of 2pi/SCALE and weight: EA
   0.00000000  0.00000000  0.00000000       0.001
   0.02688032  0.00000000  0.00000000       0.008
   0.05376065  0.00000000  0.00000000       0.008
   0.08064097  0.00000000  0.00000000       0.008
   0.10752130  0.00000000  0.00000000       0.008
   0.02688032  0.02688032  0.00000000       0.016
   0.05376065  0.02688032  0.00000000       0.033
   0.08064097  0.02688032  0.00000000       0.033
   0.10752130  0.02688032  0.00000000       0.033
   0.05376065  0.05376065  0.00000000       0.016
   0.08064097  0.05376065  0.00000000       0.033
   0.10752130  0.05376065  0.00000000       0.033
   0.08064097  0.08064097  0.00000000       0.016
   0.10752130  0.08064097  0.00000000       0.033
   0.10752130  0.10752130  0.00000000       0.016
   0.02688032  0.02688032  0.02688032       0.011
   0.05376065  0.02688032  0.02688032       0.033
   0.08064097  0.02688032  0.02688032       0.033
   0.10752130  0.02688032  0.02688032       0.033
   0.05376065  0.05376065  0.02688032       0.033
   0.08064097  0.05376065  0.02688032       0.066
   0.10752130  0.05376065  0.02688032       0.066
   0.08064097  0.08064097  0.02688032       0.033
   0.10752130  0.08064097  0.02688032       0.066
   0.10752130  0.10752130  0.02688032       0.033
   0.05376065  0.05376065  0.05376065       0.011
   0.08064097  0.05376065  0.05376065       0.033
   0.10752130  0.05376065  0.05376065       0.033
   0.08064097  0.08064097  0.05376065       0.033
   0.10752130  0.08064097  0.05376065       0.066
   0.10752130  0.10752130  0.05376065       0.033
   0.08064097  0.08064097  0.08064097       0.011
   0.10752130  0.08064097  0.08064097       0.033
   0.10752130  0.10752130  0.08064097       0.033
   0.10752130  0.10752130  0.10752130       0.011

 k-points in reciprocal lattice and weights: EA
   0.00000000  0.00000000  0.00000000       0.001
   0.11111111  0.00000000  0.00000000       0.008
   0.22222222  0.00000000  0.00000000       0.008
   0.33333333  0.00000000  0.00000000       0.008
   0.44444444  0.00000000  0.00000000       0.008
   0.11111111  0.11111111  0.00000000       0.016
   0.22222222  0.11111111  0.00000000       0.033
   0.33333333  0.11111111  0.00000000       0.033
   0.44444444  0.11111111  0.00000000       0.033
   0.22222222  0.22222222  0.00000000       0.016
   0.33333333  0.22222222  0.00000000       0.033
   0.44444444  0.22222222  0.00000000       0.033
   0.33333333  0.33333333  0.00000000       0.016
   0.44444444  0.33333333  0.00000000       0.033
   0.44444444  0.44444444  0.00000000       0.016
   0.11111111  0.11111111  0.11111111       0.011
   0.22222222  0.11111111  0.11111111       0.033
   0.33333333  0.11111111  0.11111111       0.033
   0.44444444  0.11111111  0.11111111       0.033
   0.22222222  0.22222222  0.11111111       0.033
   0.33333333  0.22222222  0.11111111       0.066
   0.44444444  0.22222222  0.11111111       0.066
   0.33333333  0.33333333  0.11111111       0.033
   0.44444444  0.33333333  0.11111111       0.066
   0.44444444  0.44444444  0.11111111       0.033
   0.22222222  0.22222222  0.22222222       0.011
   0.33333333  0.22222222  0.22222222       0.033
   0.44444444  0.22222222  0.22222222       0.033
   0.33333333  0.33333333  0.22222222       0.033
   0.44444444  0.33333333  0.22222222       0.066
   0.44444444  0.44444444  0.22222222       0.033
   0.33333333  0.33333333  0.33333333       0.011
   0.44444444  0.33333333  0.33333333       0.033
   0.44444444  0.44444444  0.33333333       0.033
   0.44444444  0.44444444  0.44444444       0.011

 position of ions in fractional coordinates (direct lattice)
   0.79996000  0.50000000  0.50000000
   0.20004000  0.50000000  0.50000000
   0.50000000  0.50000000  0.79996000
   0.50000000  0.50000000  0.20004000
   0.50000000  0.20004000  0.50000000
   0.50000000  0.79996000  0.50000000
   0.00000000  0.00000000  0.00000000

 position of ions in cartesian coordinates  (Angst):
   3.30667306  2.06677400  2.06677400
   0.82687494  2.06677400  2.06677400
   2.06677400  2.06677400  3.30667306
   2.06677400  2.06677400  0.82687494
   2.06677400  0.82687494  2.06677400
   2.06677400  3.30667306  2.06677400
   0.00000000  0.00000000  0.00000000

 k-point   1 :   0.0000 0.0000 0.0000  plane waves:    2373
 k-point   2 :   0.1111 0.0000 0.0000  plane waves:    2373
 k-point   3 :   0.2222 0.0000 0.0000  plane waves:    2353
 k-point   4 :   0.3333 0.0000 0.0000  plane waves:    2360
 k-point   5 :   0.4444 0.0000 0.0000  plane waves:    2368
 k-point   6 :   0.1111 0.1111 0.0000  plane waves:    2379
 k-point   7 :   0.2222 0.1111 0.0000  plane waves:    2356
 k-point   8 :   0.3333 0.1111 0.0000  plane waves:    2361
 k-point   9 :   0.4444 0.1111 0.0000  plane waves:    2356
 k-point  10 :   0.2222 0.2222 0.0000  plane waves:    2344
 k-point  11 :   0.3333 0.2222 0.0000  plane waves:    2342
 k-point  12 :   0.4444 0.2222 0.0000  plane waves:    2354
 k-point  13 :   0.3333 0.3333 0.0000  plane waves:    2344
 k-point  14 :   0.4444 0.3333 0.0000  plane waves:    2353
 k-point  15 :   0.4444 0.4444 0.0000  plane waves:    2352
 k-point  16 :   0.1111 0.1111 0.1111  plane waves:    2370
 k-point  17 :   0.2222 0.1111 0.1111  plane waves:    2353
 k-point  18 :   0.3333 0.1111 0.1111  plane waves:    2357
 k-point  19 :   0.4444 0.1111 0.1111  plane waves:    2357
 k-point  20 :   0.2222 0.2222 0.1111  plane waves:    2355
 k-point  21 :   0.3333 0.2222 0.1111  plane waves:    2351
 k-point  22 :   0.4444 0.2222 0.1111  plane waves:    2353
 k-point  23 :   0.3333 0.3333 0.1111  plane waves:    2356
 k-point  24 :   0.4444 0.3333 0.1111  plane waves:    2350
 k-point  25 :   0.4444 0.4444 0.1111  plane waves:    2359
 k-point  26 :   0.2222 0.2222 0.2222  plane waves:    2349
 k-point  27 :   0.3333 0.2222 0.2222  plane waves:    2355
 k-point  28 :   0.4444 0.2222 0.2222  plane waves:    2358
 k-point  29 :   0.3333 0.3333 0.2222  plane waves:    2351
 k-point  30 :   0.4444 0.3333 0.2222  plane waves:    2362
 k-point  31 :   0.4444 0.4444 0.2222  plane waves:    2357
 k-point  32 :   0.3333 0.3333 0.3333  plane waves:    2365
 k-point  33 :   0.4444 0.3333 0.3333  plane waves:    2361
 k-point  34 :   0.4444 0.4444 0.3333  plane waves:    2352
 k-point  35 :   0.4444 0.4444 0.4444  plane waves:    2347

 maximum and minimum number of plane-waves per node :      1205     1160

 maximum number of plane-waves:      2379
 maximum index in each direction:
   IXMAX=    8   IYMAX=    8   IZMAX=    8
   IXMIN=   -8   IYMIN=   -8   IZMIN=   -8

 parallel 3D FFT for wavefunctions:
    minimum data exchange during FFTs selected (reduces bandwidth)
 parallel 3D FFT for charge:
    minimum data exchange during FFTs selected (reduces bandwidth)

 Broyden mixing: mesh for mixing (old mesh)
   NGX = 17   NGY = 17   NGZ = 17
  (NGX  = 72   NGY  = 72   NGZ  = 72)
  gives a total of   4913 points

 initial charge density was supplied:
 charge density of overlapping atoms calculated
 number of electron      22.0000000 magnetization
 keeping initial charge density in first step

 Maximum index for augmentation-charges        14141 (set IRDMAX)

 First call to EWALD:  gamma=   0.429
 Maximum number of real-space cells 3x 3x 3
 Maximum number of reciprocal cells 3x 3x 3

--------------------------------------- Iteration      1(   1)  ---------------------------------------

 eigenvalue-minimisations  :  1260
 total energy-change (2. order) : 0.3694608E+02  (-0.1223182E+04)
 number of electron      22.0000000 magnetization
 augmentation part       22.0000000 magnetization

 Free energy of the ion-electron system (eV)
  alpha Z        PSCENC =        45.48040875
  Ewald energy   TEWEN  =      -553.38080797
  -Hartree energ DENC   =       -72.15056820
  -exchange      EXHF   =         0.00000000
  -V(xc)+E(xc)   XCENC  =        46.67365235
  PAW double counting   =       333.74668840     -325.44844249
  entropy T*S    EENTRO =        -0.00041250
  eigenvalues    EBANDS =        31.94139305
  atomic energy  EATOM  =       530.08416407
  free energy    TOTEN  =        36.94607544 eV

  energy without entropy =       36.94648795  energy(sigma->0) =       36.94628170

[...]

 eigenvalue-minimisations  :  1818
 total energy-change (2. order) :-0.9380379E+02  (-0.8531081E+02)
 number of electron      22.0000000 magnetization
 augmentation part       22.0000000 magnetization

[...]

 eigenvalue-minimisations  :     0
 total energy-change (2. order) : 0.2032591E+02  (-0.7955392E+01)
 number of electron      22.0000000 magnetization
 augmentation part       -0.3763835 magnetization

[...]

 eigenvalue-minimisations  :     0
 total energy-change (2. order) :-0.1121543E-07  (-0.3361625E-08)
 number of electron      22.0000000 magnetization
 augmentation part       -0.3728288 magnetization

[...]

 eigenvalue-minimisations  :     0
 total energy-change (2. order) :-0.3034756E-08  ( 0.3052671E-08)
 number of electron      22.0000000 magnetization
 augmentation part       -0.3728287 magnetization

[...]

--------------------------------------- Iteration      1(  25)  ---------------------------------------

 eigenvalue-minimisations  :     0
 total energy-change (2. order) :-0.2953584E-09  ( 0.7378006E-11)
 number of electron      22.0000000 magnetization
 augmentation part       -0.3728288 magnetization

 Free energy of the ion-electron system (eV)
  alpha Z        PSCENC =        45.48040875
  Ewald energy   TEWEN  =      -553.38080797
  -Hartree energ DENC   =      -108.01898261
  -exchange      EXHF   =         0.00000000
  -V(xc)+E(xc)   XCENC  =        49.76289216
  PAW double counting   =      1901.04566075    -1893.26863816
  entropy T*S    EENTRO =        -0.00000004
  eigenvalues    EBANDS =       -20.97791957
  atomic energy  EATOM  =       530.08416407
  free energy    TOTEN  =       -49.27322262 eV

  energy without entropy =      -49.27322257  energy(sigma->0) =      -49.27322260

  average scaling for gradient   1.4713

 average (electrostatic) potential at core
  the test charge radii are     0.7672  0.9892
  (the norm of the test charge is              1.0000)
       1 -27.7566       2 -27.7566       3 -27.7566       4 -27.7566       5 -27.7566
       6 -27.7566       7 -89.7649

 E-fermi :   5.3405     XC(G=0): -11.1602     alpha+bet :-12.8249

 Fermi energy:         5.3405297921

 k-point     1 :       0.0000    0.0000    0.0000
  band No.  band energies     occupation
      1     -10.5363      2.00000
      2      -4.1302      2.00000
      3      -2.2595      2.00000
      4      -2.2595      2.00000
      5      -2.2595      2.00000
      6      -0.5398      2.00000
      7      -0.5398      2.00000
      8       1.3805      2.00000
      9       5.0550      2.00000
     10       5.0550      2.00000
     11       5.0550      2.00000
     12       6.4849      0.00000
     13       6.4849      0.00000
     14       6.4849      0.00000
     15       8.2332      0.00000
     16       8.2332      0.00000
     17       8.2332      0.00000
     18      12.0954      0.00000

[...]

 k-point    35 :       0.4444    0.4444    0.4444
  band No.  band energies     occupation
      1      -9.3930      2.00000
      2      -4.0183      2.00000
      3      -3.9252      2.00000
      4      -3.9252      2.00000
      5      -2.3825      2.00000
      6      -0.5693      2.00000
      7      -0.5693      2.00000
      8      -0.1508      2.00000
      9       3.7117      2.00000
     10       3.7867      2.00000
     11       3.7867      2.00000
     12       8.2648      0.00000
     13       8.4823      0.00000
     14       8.4823      0.00000
     15      11.4947      0.00000
     16      12.8082      0.00000
     17      13.1763      0.00000
     18      13.1764      0.00000

 soft charge-density along one line, spin component           1
         0         1         2         3         4         5         6         7         8         9
 total charge-density along one line

------------------------ aborting loop because EDIFF is reached ----------------------------------------

  FREE ENERGIE OF THE ION-ELECTRON SYSTEM (eV)
  free  energy   TOTEN  =       -49.27322262 eV

  energy  without entropy=      -49.27322257  energy(sigma->0) =      -49.27322260

 writing wavefunctions