 vasp.6.2.0 18Jan21 (build Jan 05 2022 15:41:44) complex

 executed on             LinuxIFC date 2025.05.07  17:33:54

 INCAR:
   SYSTEM = routine with relax: pwdword
   ICHARG = 2
   NPAR = 6
   KPAR = 2
   NCORE = 2
   ADDGRID = T
   PREC = Acc
   ENCUT = 600
   METAGGA = R2SCAN
   LASPH = .TRUE.
   LMIXTAU = .FALSE.
   ALGO = A
   EDIFF = 1E-9
   NELM = 100
   NELMIN = 6
   IALGO = 38
   LREAL = F
   NSW = 0
   ISIF = -1
   ISMEAR = 0
   SIGMA = 0.02
   SYMPREC = 1E-4

 POTCAR:    PAW_PBE B 06Sep2000
 POTCAR:    PAW_PBE Mo_sv 02Feb2006
 POTCAR:    PAW_PBE Si 05Jan2001
|           W    W    AA    RRRRR   N    N  II  N    N   GGGG   !!!           |
|           W    W   A  A   R    R  NN   N  II  NN   N  G    G  !!!           |
|           W    W  A    A  R    R  N N  N  II  N N  N  G       !!!           |
|           W WW W  AAAAAA  RRRRR   N  N N  II  N  N N  G  GGG   !            |
|           WW  WW  A    A  R   R   N   NN  II  N   NN  G    G                |
|           W    W  A    A  R    R  N    N  II  N    N   GGGG   !!!           |
|     For optimal performance we recommend to set                             |
|       NCORE = 2 up to number-of-cores-per-socket                            |
|     This setting can greatly improve the performance of VASP for DFT.       |
|     The default, NCORE=1 might be grossly inefficient on modern             |
|     multi-core architectures or massively parallel machines. Do your        |
|     Unfortunately you need to use the default for GW and RPA                |
|     calculations (for HF NCORE is supported but not extensively tested      |
|     yet).                                                                   |

 POTCAR:    PAW_PBE B 06Sep2000
   VRHFIN =B: s2p1

   TITEL  = PAW_PBE B 06Sep2000
   POMASS =   10.811; ZVAL   =    3.000    mass and valenz
   ENMAX  =  318.614; ENMIN  =  238.960 eV

 POTCAR:    PAW_PBE Mo_sv 02Feb2006
   VRHFIN =Mo: 4p5s4d

   TITEL  = PAW_PBE Mo_sv 02Feb2006
   POMASS =   95.940; ZVAL   =   14.000    mass and valenz
   ENMAX  =  242.676; ENMIN  =  182.007 eV

 POTCAR:    PAW_PBE Si 05Jan2001
   VRHFIN =Si: s2p2

   TITEL  = PAW_PBE Si 05Jan2001
   POMASS =   28.085; ZVAL   =    4.000    mass and valenz
   ENMAX  =  245.345; ENMIN  =  184.009 eV

  PAW_PBE B 06Sep2000                   :
  PAW_PBE Mo_sv 02Feb2006               :
  PAW_PBE Si 05Jan2001                  :

 POSCAR: EA124
  positions in direct lattice

 METAGGA = R2SCA    LMAXTAU =  6    LMIXTAU =  F

 ion  position               nearest neighbor table
   1  0.500  0.500  0.500-   9 1.92  10 1.92   6 1.97   8 1.97  12 1.97  11 1.97
   2  0.500  0.000  0.000-   5 1.92   7 1.92  11 1.97  12 1.97   8 1.97   6 1.97
   3  0.000  0.000  0.500-   9 1.92  10 1.92   6 1.97   8 1.97  11 1.97  12 1.97
   4  0.000  0.500  0.000-   5 1.92   7 1.92  11 1.97  12 1.97   6 1.97   8 1.97
   5  0.743  0.243  0.986-   2 1.92   4 1.92   8 2.71   6 2.71  11 2.75  12 2.75  11 2.75  12 2.75
                            10 2.78   9 2.78   9 2.78  10 2.78   8 2.79   6 2.79
   6  0.250  0.750  0.500-   1 1.97   3 1.97   2 1.97   4 1.97   7 2.71  10 2.71   9 2.71   5 2.71
                            12 2.78  11 2.78  11 2.78  12 2.78  10 2.79   9 2.79   7 2.79   5 2.79
   7  0.257  0.757  0.014-   2 1.92   4 1.92   6 2.71   8 2.71  12 2.75  11 2.75  11 2.75  12 2.75
                             9 2.78  10 2.78   9 2.78  10 2.78   6 2.79   8 2.79
   8  0.750  0.250  0.500-   1 1.97   3 1.97   4 1.97   2 1.97   5 2.71  10 2.71   9 2.71   7 2.71
                            12 2.78  11 2.78  12 2.78  11 2.78   9 2.79  10 2.79   5 2.79   7 2.79
   9  0.243  0.257  0.500-   1 1.92   3 1.92   6 2.71   8 2.71  11 2.75  11 2.75  12 2.75  12 2.75
                             7 2.78   5 2.78   7 2.78   5 2.78   6 2.79   8 2.79
  10  0.757  0.743  0.500-   1 1.92   3 1.92   6 2.71   8 2.71  12 2.75  12 2.75  11 2.75  11 2.75
                             7 2.78   5 2.78   7 2.78   5 2.78   8 2.79   6 2.79
  11  0.250  0.250  0.000-   2 1.97   4 1.97   1 1.97   3 1.97   5 2.75   7 2.75   9 2.75   9 2.75
                             7 2.75   5 2.75  10 2.75  10 2.75   6 2.78   8 2.78   6 2.78   8 2.78
  12  0.750  0.750  0.000-   2 1.97   4 1.97   3 1.97   1 1.97   7 2.75   5 2.75  10 2.75  10 2.75
                             7 2.75   5 2.75   9 2.75   9 2.75   8 2.78   8 2.78   6 2.78   6 2.78

  LATTYP: Found a body centered tetragonal cell.
 ALAT       =     5.5658482730
 C/A-ratio  =     1.3785240529

  Lattice vectors:

 A1 = (   4.7995875900,   0.0000000000,  -2.6777835179)
 A2 = (  -1.6547811932,   4.5053013480,  -2.6777835179)
 A3 = (   0.0000000000,   0.0000000000,   5.4960500000)

Analysis of symmetry for initial positions (statically):
 Subroutine PRICEL returns:
 Original cell was already a primitive cell.

 Routine SETGRP: Setting up the symmetry group for a
 body centered tetragonal supercell.

 Subroutine GETGRP returns: Found 16 space group operations
 (whereof  8 operations were pure point group operations)
 out of a pool of 16 trial point group operations.

The static configuration has the point symmetry C_4h.
 The point group associated with its full space group is D_4h.

Analysis of symmetry for dynamics (positions and initial velocities):
 Subroutine PRICEL returns:
 Original cell was already a primitive cell.

 Routine SETGRP: Setting up the symmetry group for a
 body centered tetragonal supercell.

 Subroutine GETGRP returns: Found 16 space group operations
 (whereof  8 operations were pure point group operations)
 out of a pool of 16 trial point group operations.

The dynamic configuration has the point symmetry C_4h.
 The point group associated with its full space group is D_4h.

 Subroutine INISYM returns: Found 16 space group operations
 (whereof  8 operations are pure point group operations),
 and found     1 'primitive' translations

                                     Primitive cell

  volume of cell :     118.8443

  direct lattice vectors                    reciprocal lattice vectors
     4.799587590  0.000000000 -2.677783518     0.208351235  0.076526669  0.000000000
    -1.654781193  4.505301348 -2.677783518     0.000000000  0.221960735  0.000000000
     0.000000000  0.000000000  5.496050000     0.101512814  0.145428926  0.181948854

  length of vectors
     5.496050000  5.496050000  5.496050000     0.221960735  0.221960735  0.254086225

  position of ions in fractional coordinates (direct lattice)
     0.500000000  0.500000000  0.500000000
     0.500000000  0.000000000  0.000000000
     0.000000000  0.000000000  0.500000000
     1.000000000  0.500000000  0.000000000
     0.742790000  0.242790000  0.985580000
     0.250000000  0.750000000  0.500000000
     0.257210000  0.757210000  0.014420000
     0.750000000  0.250000000  0.500000000
     0.242790000  0.257210000  0.500000000
     0.757210000  0.742790000  0.500000000
     0.250000000  0.250000000  0.000000000
     0.750000000  0.750000000  0.000000000

  ion indices of the primitive-cell ions
   primitive index   ion index
                 1           1
                 2           2
                 3           3
                 4           4
                 5           5
                 6           6
                 7           7
                 8           8
                 9           9
                10          10
                11          11
                12          12

 KPOINTS: EA

Automatic generation of k-mesh.
 Grid dimensions read from file:
 generate k-points for:    8    8    9

 Generating k-lattice:

  Cartesian coordinates                     Fractional coordinates (reciprocal lattice)
     0.026043904  0.009565834  0.000000000     0.125000000 -0.000000000  0.000000000
     0.000000000  0.027745092  0.000000000     0.000000000  0.125000000  0.000000000
     0.011279202  0.016158770  0.020216539     0.000000000  0.000000000  0.111111111

  Length of vectors
     0.027745092  0.027745092  0.028231803

  Shift w.r.t. Gamma in fractional coordinates (k-lattice)
     0.000000000  0.000000000  0.000000000

 WARNING: IBZKPT: internal override: KBLOWUP is changed to .FALSE.
      ... skipping the blow-up phase ...

 Subroutine IBZKPT returns following result:

 Found    165 irreducible k-points:

 Following reciprocal coordinates:
            Coordinates               Weight
  0.000000  0.000000  0.000000      1.000000
  0.125000  0.000000  0.000000      4.000000
  0.250000  0.000000  0.000000      4.000000
  0.375000  0.000000  0.000000      4.000000
  0.500000  0.000000  0.000000      2.000000
  0.125000  0.125000  0.000000      2.000000
  0.250000  0.125000  0.000000      4.000000
  0.375000  0.125000  0.000000      4.000000
  0.500000  0.125000  0.000000      4.000000
 -0.375000  0.125000  0.000000      4.000000
 -0.250000  0.125000  0.000000      4.000000
 -0.125000  0.125000  0.000000      2.000000
  0.250000  0.250000  0.000000      2.000000
  0.375000  0.250000  0.000000      4.000000
  0.500000  0.250000  0.000000      4.000000
 -0.375000  0.250000  0.000000      4.000000
 -0.250000  0.250000  0.000000      2.000000
  0.375000  0.375000  0.000000      2.000000
  0.500000  0.375000  0.000000      4.000000
 -0.375000  0.375000  0.000000      2.000000
  0.500000  0.500000  0.000000      1.000000
 -0.000000 -0.000000  0.111111      2.000000
  0.125000 -0.000000  0.111111      4.000000
  0.250000 -0.000000  0.111111      4.000000
  0.375000  0.000000  0.111111      4.000000
  0.500000 -0.000000  0.111111      4.000000
 -0.375000 -0.000000  0.111111      4.000000
 -0.250000 -0.000000  0.111111      4.000000
 -0.125000  0.000000  0.111111      4.000000
  0.125000  0.125000  0.111111      2.000000
  0.250000  0.125000  0.111111      4.000000
  0.375000  0.125000  0.111111      4.000000
  0.500000  0.125000  0.111111      4.000000
 -0.375000  0.125000  0.111111      4.000000
 -0.250000  0.125000  0.111111      4.000000
 -0.125000  0.125000  0.111111      4.000000
  0.250000  0.250000  0.111111      2.000000
  0.375000  0.250000  0.111111      4.000000
  0.500000  0.250000  0.111111      4.000000
 -0.375000  0.250000  0.111111      4.000000
 -0.250000  0.250000  0.111111      4.000000
 -0.125000  0.250000  0.111111      4.000000
  0.375000  0.375000  0.111111      2.000000
  0.500000  0.375000  0.111111      4.000000
 -0.375000  0.375000  0.111111      4.000000
 -0.250000  0.375000  0.111111      4.000000
 -0.125000  0.375000  0.111111      4.000000
  0.500000  0.500000  0.111111      2.000000
 -0.375000  0.500000  0.111111      4.000000
 -0.250000  0.500000  0.111111      4.000000
 -0.125000  0.500000  0.111111      4.000000
 -0.375000 -0.375000  0.111111      2.000000
 -0.250000 -0.375000  0.111111      4.000000
 -0.125000 -0.375000  0.111111      4.000000
 -0.250000 -0.250000  0.111111      2.000000
 -0.125000 -0.250000  0.111111      4.000000
 -0.125000 -0.125000  0.111111      2.000000
 -0.000000 -0.000000  0.222222      2.000000
  0.125000  0.000000  0.222222      4.000000
  0.250000  0.000000  0.222222      4.000000
[...]
  0.375000  0.375000  0.444444      2.000000
  0.500000  0.375000  0.444444      4.000000
 -0.375000  0.375000  0.444444      4.000000
[...]
  -0.37500000  0.12500000  0.11111111       0.007
  -0.25000000  0.12500000  0.11111111       0.007
  -0.12500000  0.12500000  0.11111111       0.007
   0.25000000  0.25000000  0.11111111       0.003
   0.37500000  0.25000000  0.11111111       0.007
   0.50000000  0.25000000  0.11111111       0.007
  -0.37500000  0.25000000  0.11111111       0.007
  -0.25000000  0.25000000  0.11111111       0.007
  -0.12500000  0.25000000  0.11111111       0.007
   0.37500000  0.37500000  0.11111111       0.003
   0.50000000  0.37500000  0.11111111       0.007
  -0.37500000  0.37500000  0.11111111       0.007
  -0.25000000  0.37500000  0.11111111       0.007
  -0.12500000  0.37500000  0.11111111       0.007
   0.50000000  0.50000000  0.11111111       0.003
  -0.37500000  0.50000000  0.11111111       0.007
  -0.25000000  0.50000000  0.11111111       0.007
  -0.12500000  0.50000000  0.11111111       0.007
  -0.37500000 -0.37500000  0.11111111       0.003
  -0.25000000 -0.37500000  0.11111111       0.007
  -0.12500000 -0.37500000  0.11111111       0.007
  -0.25000000 -0.25000000  0.11111111       0.003
  -0.12500000 -0.25000000  0.11111111       0.007
  -0.12500000 -0.12500000  0.11111111       0.003
  -0.00000000 -0.00000000  0.22222222       0.003
   0.12500000  0.00000000  0.22222222       0.007
   0.25000000  0.00000000  0.22222222       0.007
[...]
   0.37500000  0.37500000  0.44444444       0.003
   0.50000000  0.37500000  0.44444444       0.007
  -0.37500000  0.37500000  0.44444444       0.007
  -0.25000000  0.37500000  0.44444444       0.007
  -0.12500000  0.37500000  0.44444444       0.007
   0.50000000  0.50000000  0.44444444       0.003
  -0.37500000  0.50000000  0.44444444       0.007
  -0.25000000  0.50000000  0.44444444       0.007
  -0.12500000  0.50000000  0.44444444       0.007
  -0.37500000 -0.37500000  0.44444444       0.003
  -0.25000000 -0.37500000  0.44444444       0.007
  -0.12500000 -0.37500000  0.44444444       0.007
  -0.25000000 -0.25000000  0.44444444       0.003
  -0.12500000 -0.25000000  0.44444444       0.007
  -0.12500000 -0.12500000  0.44444444       0.003

 position of ions in fractional coordinates (direct lattice)
   0.50000000  0.50000000  0.50000000
   0.50000000  0.00000000  0.00000000
   0.00000000  0.00000000  0.50000000
   0.00000000  0.50000000  0.00000000
   0.74279000  0.24279000  0.98558000
   0.25000000  0.75000000  0.50000000
   0.25721000  0.75721000  0.01442000
   0.75000000  0.25000000  0.50000000
   0.24279000  0.25721000  0.50000000
   0.75721000  0.74279000  0.50000000
   0.25000000  0.25000000  0.00000000
   0.75000000  0.75000000  0.00000000

 position of ions in cartesian coordinates  (Angst):
   1.57240320  2.25265067  0.07024148
   2.39979379  0.00000000 -1.33889176
   0.00000000  0.00000000  2.74802500
  -0.82739060  2.25265067 -1.33889176
   3.16332134  1.09384211  2.77762708
  -0.04118900  3.37897601  0.07024148
  -0.01851494  3.41145923 -2.63714412
   3.18599539  1.12632534  0.07024148
   0.73966560  1.15880856  1.40913324
   2.40514080  3.34649279 -1.26865028
   0.78620160  1.12632534 -1.33889176
   2.35860480  3.37897601 -4.01667528

 k-point   1 :   0.0000 0.0000 0.0000  plane waves:    3919
 k-point   2 :   0.1250 0.0000 0.0000  plane waves:    3925
 k-point   3 :   0.2500 0.0000 0.0000  plane waves:    3953
 k-point   4 :   0.3750 0.0000 0.0000  plane waves:    3959
 k-point   5 :   0.5000 0.0000 0.0000  plane waves:    3966
 k-point   6 :   0.1250 0.1250 0.0000  plane waves:    3946
 k-point   7 :   0.2500 0.1250 0.0000  plane waves:    3957
 k-point   8 :   0.3750 0.1250 0.0000  plane waves:    3958
 k-point   9 :   0.5000 0.1250 0.0000  plane waves:    3955
 k-point  10 :  -0.3750 0.1250 0.0000  plane waves:    3957
 k-point  11 :  -0.2500 0.1250 0.0000  plane waves:    3950
 k-point  12 :  -0.1250 0.1250 0.0000  plane waves:    3927
 k-point  13 :   0.2500 0.2500 0.0000  plane waves:    3964
 k-point  14 :   0.3750 0.2500 0.0000  plane waves:    3969
 k-point  15 :   0.5000 0.2500 0.0000  plane waves:    3968
 k-point  16 :  -0.3750 0.2500 0.0000  plane waves:    3976
 k-point  17 :  -0.2500 0.2500 0.0000  plane waves:    3966
 k-point  18 :   0.3750 0.3750 0.0000  plane waves:    3982
 k-point  19 :   0.5000 0.3750 0.0000  plane waves:    3976
 k-point  20 :  -0.3750 0.3750 0.0000  plane waves:    3978
 k-point  21 :   0.5000 0.5000 0.0000  plane waves:    3960
 k-point  22 :  -0.0000-0.0000 0.1111  plane waves:    3925
 k-point  23 :   0.1250-0.0000 0.1111  plane waves:    3947
 k-point  24 :   0.2500-0.0000 0.1111  plane waves:    3954
 k-point  25 :   0.3750 0.0000 0.1111  plane waves:    3958
 k-point  26 :   0.5000-0.0000 0.1111  plane waves:    3959
 k-point  27 :  -0.3750-0.0000 0.1111  plane waves:    3956
 k-point  28 :  -0.2500-0.0000 0.1111  plane waves:    3944
 k-point  29 :  -0.1250 0.0000 0.1111  plane waves:    3922
 k-point  30 :   0.1250 0.1250 0.1111  plane waves:    3958
 k-point  31 :   0.2500 0.1250 0.1111  plane waves:    3964
 k-point  32 :   0.3750 0.1250 0.1111  plane waves:    3964
 k-point  33 :   0.5000 0.1250 0.1111  plane waves:    3970
 k-point  34 :  -0.3750 0.1250 0.1111  plane waves:    3963
 k-point  35 :  -0.2500 0.1250 0.1111  plane waves:    3946
 k-point  36 :  -0.1250 0.1250 0.1111  plane waves:    3953
 k-point  37 :   0.2500 0.2500 0.1111  plane waves:    3966
 k-point  38 :   0.3750 0.2500 0.1111  plane waves:    3973
 k-point  39 :   0.5000 0.2500 0.1111  plane waves:    3968
 k-point  40 :  -0.3750 0.2500 0.1111  plane waves:    3974
 k-point  41 :  -0.2500 0.2500 0.1111  plane waves:    3971
 k-point  42 :  -0.1250 0.2500 0.1111  plane waves:    3969
 k-point  43 :   0.3750 0.3750 0.1111  plane waves:    3982
 k-point  44 :   0.5000 0.3750 0.1111  plane waves:    3976
 k-point  45 :  -0.3750 0.3750 0.1111  plane waves:    3967
 k-point  46 :  -0.2500 0.3750 0.1111  plane waves:    3975
 k-point  47 :  -0.1250 0.3750 0.1111  plane waves:    3968
 k-point  48 :   0.5000 0.5000 0.1111  plane waves:    3968
 k-point  49 :  -0.3750 0.5000 0.1111  plane waves:    3974
 k-point  50 :  -0.2500 0.5000 0.1111  plane waves:    3972
 k-point  51 :  -0.1250 0.5000 0.1111  plane waves:    3973
 k-point  52 :  -0.3750-0.3750 0.1111  plane waves:    3983
 k-point  53 :  -0.2500-0.3750 0.1111  plane waves:    3973
 k-point  54 :  -0.1250-0.3750 0.1111  plane waves:    3962
 k-point  55 :  -0.2500-0.2500 0.1111  plane waves:    3970
 k-point  56 :  -0.1250-0.2500 0.1111  plane waves:    3963
 k-point  57 :  -0.1250-0.1250 0.1111  plane waves:    3943
 k-point  58 :  -0.0000-0.0000 0.2222  plane waves:    3958
 k-point  59 :   0.1250 0.0000 0.2222  plane waves:    3968
 k-point  60 :   0.2500 0.0000 0.2222  plane waves:    3966
[...]
 k-point 151 :   0.3750 0.3750 0.4444  plane waves:    3974
 k-point 152 :   0.5000 0.3750 0.4444  plane waves:    3975
 k-point 153 :  -0.3750 0.3750 0.4444  plane waves:    3983
 k-point 154 :  -0.2500 0.3750 0.4444  plane waves:    3976
 k-point 155 :  -0.1250 0.3750 0.4444  plane waves:    3974
 k-point 156 :   0.5000 0.5000 0.4444  plane waves:    3970
 k-point 157 :  -0.3750 0.5000 0.4444  plane waves:    3971
 k-point 158 :  -0.2500 0.5000 0.4444  plane waves:    3975
 k-point 159 :  -0.1250 0.5000 0.4444  plane waves:    3962
 k-point 160 :  -0.3750-0.3750 0.4444  plane waves:    3962
 k-point 161 :  -0.2500-0.3750 0.4444  plane waves:    3967
 k-point 162 :  -0.1250-0.3750 0.4444  plane waves:    3964
 k-point 163 :  -0.2500-0.2500 0.4444  plane waves:    3970
 k-point 164 :  -0.1250-0.2500 0.4444  plane waves:    3960
 k-point 165 :  -0.1250-0.1250 0.4444  plane waves:    3970

 maximum and minimum number of plane-waves per node :      2009     1948

 maximum number of plane-waves:      3989
 maximum index in each direction:
   IXMAX=   11   IYMAX=   11   IZMAX=   10
   IXMIN=  -11   IYMIN=  -11   IZMIN=  -11

 parallel 3D FFT for wavefunctions:
    minimum data exchange during FFTs selected (reduces bandwidth)
 parallel 3D FFT for charge:
    minimum data exchange during FFTs selected (reduces bandwidth)

 Broyden mixing: mesh for mixing (old mesh)
   NGX = 21   NGY = 21   NGZ = 21
  (NGX  = 96   NGY  = 96   NGZ  = 96)
  gives a total of   9261 points

 initial charge density was supplied:
 charge density of overlapping atoms calculated
 number of electron     104.0000000 magnetization
 keeping initial charge density in first step

 Maximum index for augmentation-charges        26225 (set IRDMAX)

 First call to EWALD:  gamma=   0.361
 Maximum number of real-space cells 3x 3x 3
 Maximum number of reciprocal cells 3x 3x 3

--------------------------------------- Iteration      1(   1)  ---------------------------------------

 eigenvalue-minimisations  : 21816
 total energy-change (2. order) : 0.1166009E+04  (-0.7242066E+04)
 number of electron     104.0000000 magnetization
 augmentation part      104.0000000 magnetization

 Free energy of the ion-electron system (eV)
  alpha Z        PSCENC =       786.14781555
  Ewald energy   TEWEN  =    -10422.04910552
  -Hartree energ DENC   =     -2041.93259048
  -exchange      EXHF   =         0.00000000
  -V(xc)+E(xc)   XCENC  =       499.26762403
  PAW double counting   =      9250.47132855    -9210.50234729
  entropy T*S    EENTRO =        -0.00073223
  eigenvalues    EBANDS =       640.10010734
  atomic energy  EATOM  =     11664.50664672
  free energy    TOTEN  =      1166.00874668 eV

  energy without entropy =     1166.00947891  energy(sigma->0) =     1166.00911280

[...]

 eigenvalue-minimisations  : 23844
 total energy-change (2. order) :-0.1348960E+04  (-0.1317944E+04)
 number of electron     104.0000000 magnetization
 augmentation part      104.0000000 magnetization

[...]

 eigenvalue-minimisations  :     0
 total energy-change (2. order) : 0.1869375E-07  ( 0.1978856E-06)
 number of electron     104.0000001 magnetization
 augmentation part       14.4732182 magnetization

[...]

 eigenvalue-minimisations  :     0
 total energy-change (2. order) : 0.4703907E-08  (-0.2383652E-09)
 number of electron     104.0000001 magnetization
 augmentation part       14.4732139 magnetization

[...]

--------------------------------------- Iteration      1(  35)  ---------------------------------------

 eigenvalue-minimisations  :     0
 total energy-change (2. order) :-0.2855813E-09  (-0.1072119E-09)
 number of electron     104.0000001 magnetization
 augmentation part       14.4732133 magnetization

 Free energy of the ion-electron system (eV)
  alpha Z        PSCENC =       786.14781555
  Ewald energy   TEWEN  =    -10422.04910552
  -Hartree energ DENC   =     -1913.49201181
  -exchange      EXHF   =         0.00000000
  -V(xc)+E(xc)   XCENC  =       511.38550132
  PAW double counting   =     17165.60207160   -17149.24335556
  entropy T*S    EENTRO =        -0.00091583
  eigenvalues    EBANDS =      -831.31754800
  atomic energy  EATOM  =     11664.50664672
  free energy    TOTEN  =      -188.46090153 eV

  energy without entropy =     -188.45998570  energy(sigma->0) =     -188.46044361

  average scaling for gradient   0.8200

 average (electrostatic) potential at core
  the test charge radii are     0.7672  1.0818  0.9892
  (the norm of the test charge is              1.0000)
       1 -19.2629       2 -19.2627       3 -19.2629       4 -19.2627       5 -71.8303
       6 -71.7612       7 -71.8303       8 -71.7612       9 -71.8303      10 -71.8303
      11 -78.7701      12 -78.7701

 E-fermi :  14.5324     XC(G=0): -15.1190     alpha+bet :-23.5460

 Fermi energy:        14.5323665998

 k-point     1 :       0.0000    0.0000    0.0000
  band No.  band energies     occupation
      1     -48.3061      2.00000
      2     -48.0779      2.00000
      3     -48.0550      2.00000
      4     -48.0550      2.00000
      5     -47.9519      2.00000
      6     -47.9284      2.00000
      7     -22.6690      2.00000
      8     -22.6688      2.00000
      9     -22.4682      2.00000
     10     -22.4484      2.00000
     11     -22.4165      2.00000
     12     -22.4163      2.00000
     13     -22.0733      2.00000
     14     -21.8635      2.00000
     15     -21.5965      2.00000
     16     -21.5964      2.00000
     17     -21.2928      2.00000
     18     -21.2926      2.00000
     19     -21.0743      2.00000
     20     -20.9970      2.00000
     21     -20.9969      2.00000
     22     -20.9655      2.00000
     23     -20.8957      2.00000
     24     -20.7575      2.00000
     25      -0.4240      2.00000
     26       1.3115      2.00000
     27       4.1019      2.00000
     28       6.5643      2.00000
     29       6.5643      2.00000
     30       6.6815      2.00000
     31       7.3914      2.00000
     32       7.3916      2.00000
     33       7.8715      2.00000
     34       7.9647      2.00000
     35       8.2071      2.00000
     36       8.2071      2.00000
     37       8.3584      2.00000
     38       9.3309      2.00000
     39       9.3310      2.00000
     40       9.4744      2.00000
     41      10.7459      2.00000
     42      10.8036      2.00000
     43      10.8036      2.00000
     44      11.4476      2.00000
     45      12.1060      2.00000
     46      12.5319      2.00000
     47      13.9235      2.00000
     48      13.9236      2.00000
     49      14.0418      2.00000
     50      14.0420      2.00000
     51      14.0638      2.00000
     52      14.9757      0.00000
     53      15.9112      0.00000
     54      16.2827      0.00000
     55      16.5133      0.00000
     56      16.6298      0.00000
     57      16.6298      0.00000
     58      17.0544      0.00000
     59      17.3044      0.00000
     60      17.8039      0.00000
     61      17.9262      0.00000
     62      17.9555      0.00000
     63      18.2835      0.00000
     64      18.2835      0.00000
     65      19.5023      0.00000
     66      20.2555      0.00000

[...]

 k-point   165 :      -0.1250   -0.1250    0.4444
  band No.  band energies     occupation
      1     -48.2304      2.00000
      2     -48.1114      2.00000
      3     -48.0560      2.00000
      4     -48.0273      2.00000
      5     -48.0100      2.00000
      6     -47.9437      2.00000
      7     -22.6301      2.00000
      8     -22.4100      2.00000
      9     -22.3723      2.00000
     10     -22.3052      2.00000
     11     -22.1630      2.00000
     12     -22.0850      2.00000
     13     -21.8772      2.00000
     14     -21.8439      2.00000
     15     -21.7028      2.00000
     16     -21.5870      2.00000
     17     -21.5854      2.00000
     18     -21.3582      2.00000
     19     -21.3484      2.00000
     20     -21.2965      2.00000
     21     -21.2047      2.00000
     22     -21.1326      2.00000
     23     -20.9510      2.00000
     24     -20.8276      2.00000
     25       0.7837      2.00000
     26       1.9735      2.00000
     27       3.5294      2.00000
     28       4.1270      2.00000
     29       5.7231      2.00000
     30       6.7606      2.00000
     31       7.1557      2.00000
     32       7.5555      2.00000
     33       7.6310      2.00000
     34       8.8368      2.00000
     35       9.0810      2.00000
     36       9.3864      2.00000
     37       9.8510      2.00000
     38       9.8822      2.00000
     39       9.9863      2.00000
     40      10.0193      2.00000
     41      11.1482      2.00000
     42      11.1916      2.00000
     43      11.3744      2.00000
     44      11.4941      2.00000
     45      12.1616      2.00000
     46      12.4929      2.00000
     47      12.7435      2.00000
     48      13.2289      2.00000
     49      13.7692      2.00000
     50      13.9022      2.00000
     51      14.2041      2.00000
     52      14.3663      2.00000
     53      14.7486      0.00000
     54      14.7542      0.00000
     55      15.3859      0.00000
     56      15.6581      0.00000
     57      16.3205      0.00000
     58      16.4008      0.00000
     59      16.4961      0.00000
     60      17.0709      0.00000
     61      17.2604      0.00000
     62      17.6148      0.00000
     63      17.8361      0.00000
     64      18.4430      0.00000
     65      18.4832      0.00000
     66      19.0405      0.00000

 soft charge-density along one line, spin component           1
         0         1         2         3         4         5         6         7         8         9
 total charge-density along one line

------------------------ aborting loop because EDIFF is reached ----------------------------------------

  FREE ENERGIE OF THE ION-ELECTRON SYSTEM (eV)
  free  energy   TOTEN  =      -188.46090153 eV

  energy  without entropy=     -188.45998570  energy(sigma->0) =     -188.46044361

 writing wavefunctions