 vasp.6.2.0 18Jan21 (build Jan 05 2022 15:41:44) complex

 executed on             LinuxIFC date 2025.05.07  21:30:09

 INCAR:
   SYSTEM = routine with relax: pwdword
   ICHARG = 2
   NPAR = 6
   KPAR = 2
   NCORE = 2
   ADDGRID = T
   PREC = Acc
   ENCUT = 600
   METAGGA = R2SCAN
   LASPH = .TRUE.
   LMIXTAU = .FALSE.
   ALGO = A
   EDIFF = 1E-9
   NELM = 100
   NELMIN = 6
   IALGO = 38
   LREAL = F
   NSW = 0
   ISIF = -1
   ISMEAR = 0
   SIGMA = 0.02

 POTCAR:    PAW_PBE B 06Sep2000
 POTCAR:    PAW_PBE Si 05Jan2001
|           W    W    AA    RRRRR   N    N  II  N    N   GGGG   !!!           |
|           W    W   A  A   R    R  NN   N  II  NN   N  G    G  !!!           |
|           W    W  A    A  R    R  N N  N  II  N N  N  G       !!!           |
|           W WW W  AAAAAA  RRRRR   N  N N  II  N  N N  G  GGG   !            |
|           WW  WW  A    A  R   R   N   NN  II  N   NN  G    G                |
|           W    W  A    A  R    R  N    N  II  N    N   GGGG   !!!           |
|     For optimal performance we recommend to set                             |
|       NCORE = 2 up to number-of-cores-per-socket                            |
|     This setting can greatly improve the performance of VASP for DFT.       |
|     The default, NCORE=1 might be grossly inefficient on modern             |
|     multi-core architectures or massively parallel machines. Do your        |
|     Unfortunately you need to use the default for GW and RPA                |
|     calculations (for HF NCORE is supported but not extensively tested      |
|     yet).                                                                   |

 POTCAR:    PAW_PBE B 06Sep2000
   VRHFIN =B: s2p1

   TITEL  = PAW_PBE B 06Sep2000
   POMASS =   10.811; ZVAL   =    3.000    mass and valenz
   ENMAX  =  318.614; ENMIN  =  238.960 eV

 POTCAR:    PAW_PBE Si 05Jan2001
   VRHFIN =Si: s2p2

   TITEL  = PAW_PBE Si 05Jan2001
   POMASS =   28.085; ZVAL   =    4.000    mass and valenz
   ENMAX  =  245.345; ENMIN  =  184.009 eV

  PAW_PBE B 06Sep2000                   :
  PAW_PBE Si 05Jan2001                  :

 POSCAR: EA260
  positions in direct lattice

 METAGGA = R2SCA    LMAXTAU =  6    LMIXTAU =  F

 ion  position               nearest neighbor table
   1  0.657  0.823  0.173-  12 1.72   4 1.77  24 1.78  13 1.79   6 1.80  16 1.93
   2  0.390  0.224  0.002-  14 1.75   4 1.77  15 1.79   7 1.80   6 1.85  32 2.03
   3  0.298  0.431  0.431-  22 1.77  10 1.77  17 1.77   5 1.77  23 1.80  27 2.01
   4  0.659  0.069  0.069-   2 1.77   6 1.77   1 1.77   7 1.77  24 1.80  30 2.01
   5  0.154  0.327  0.677-  15 1.72   3 1.77  23 1.78  20 1.79  10 1.80  11 1.93
   6  0.390  0.002  0.224-  14 1.75   4 1.77  16 1.79   1 1.80   2 1.85  29 2.03
   7  0.657  0.173  0.823-  11 1.72   4 1.77  24 1.78  21 1.79   2 1.80  15 1.93
   8  0.702  0.569  0.569-  20 1.77  18 1.77  11 1.77  12 1.77  19 1.80  26 2.01
   9  0.341  0.931  0.931-  13 1.77  21 1.77  15 1.77  16 1.77  14 1.80  25 2.01
  10  0.115  0.276  0.498-  19 1.75   3 1.77  11 1.79   5 1.80  22 1.85  29 2.03
  11  0.846  0.323  0.673-   7 1.72   8 1.77  19 1.78  10 1.79  20 1.80   5 1.93
  12  0.846  0.673  0.323-   1 1.72   8 1.77  19 1.78  22 1.79  18 1.80  17 1.93
  13  0.610  0.776  0.998-  24 1.75   9 1.77   1 1.79  16 1.80  21 1.85  28 2.03
  14  0.202  0.074  0.074-   6 1.75   2 1.75  16 1.78  15 1.78   9 1.80  30 1.97
  15  0.343  0.177  0.827-   5 1.72   9 1.77  14 1.78   2 1.79  21 1.80   7 1.93
  16  0.343  0.827  0.177-  17 1.72   9 1.77  14 1.78   6 1.79  13 1.80   1 1.93
  17  0.154  0.677  0.327-  16 1.72   3 1.77  23 1.78  18 1.79  22 1.80  12 1.93
  18  0.885  0.724  0.502-  23 1.75   8 1.77  17 1.79  12 1.80  20 1.85  31 2.03
  19  0.851  0.426  0.426-  10 1.75  22 1.75  12 1.78  11 1.78   8 1.80  27 1.97
  20  0.885  0.502  0.724-  23 1.75   8 1.77   5 1.79  11 1.80  18 1.85  28 2.03
  21  0.610  0.998  0.776-  24 1.75   9 1.77   7 1.79  15 1.80  13 1.85  31 2.03
  22  0.115  0.498  0.276-  19 1.75   3 1.77  12 1.79  17 1.80  10 1.85  32 2.03
  23  0.149  0.574  0.574-  18 1.75  20 1.75   5 1.78  17 1.78   3 1.80  26 1.97
  24  0.798  0.926  0.926-  21 1.75  13 1.75   7 1.78   1 1.78   4 1.80  25 1.97
  25  0.152  0.845  0.845-  24 1.97   9 2.01  26 2.40  32 2.58  29 2.58
  26  0.343  0.655  0.655-  23 1.97   8 2.01  25 2.40  29 2.58  32 2.58
  27  0.657  0.345  0.345-  19 1.97   3 2.01  30 2.40  31 2.58  28 2.58
  28  0.686  0.518  0.982-  13 2.03  20 2.03  32 2.33  30 2.58  27 2.58
  29  0.314  0.018  0.482-   6 2.03  10 2.03  31 2.33  26 2.58  25 2.58
  30  0.848  0.155  0.155-  14 1.97   4 2.01  27 2.40  28 2.58  31 2.58
  31  0.686  0.982  0.518-  21 2.03  18 2.03  29 2.33  27 2.58  30 2.58
  32  0.314  0.482  0.018-   2 2.03  22 2.03  28 2.33  25 2.58  26 2.58

  LATTYP: Found a body centered orthorhombic cell.
 ALAT       =     6.2063375506
 B/A-ratio  =     1.3472030661
 C/A-ratio  =     2.0221370811

  Lattice vectors:

 A1 = (  -1.7683120700,  -6.9612784000,  -3.8596327200)
 A2 = (   5.7373229600,  -0.0076212100,  -5.7936325200)
 A3 = (   0.0027683200,   0.0076212100,   8.1537125800)

Analysis of symmetry for initial positions (statically):
 Subroutine PRICEL returns:
 Original cell was already a primitive cell.

 Routine SETGRP: Setting up the symmetry group for a
 body centered orthorhombic supercell.

 Subroutine GETGRP returns: Found  8 space group operations
 (whereof  4 operations were pure point group operations)
 out of a pool of  8 trial point group operations.

The static configuration has the point symmetry C_2h.
 The point group associated with its full space group is D_2h.

Analysis of symmetry for dynamics (positions and initial velocities):
 Subroutine PRICEL returns:
 Original cell was already a primitive cell.

 Routine SETGRP: Setting up the symmetry group for a
 body centered orthorhombic supercell.

 Subroutine GETGRP returns: Found  8 space group operations
 (whereof  4 operations were pure point group operations)
 out of a pool of  8 trial point group operations.

The dynamic configuration has the point symmetry C_2h.
 The point group associated with its full space group is D_2h.

 Subroutine INISYM returns: Found  8 space group operations
 (whereof  4 operations are pure point group operations),
 and found     1 'primitive' translations

                                     Primitive cell

  volume of cell :     325.6266

  direct lattice vectors                    reciprocal lattice vectors
     5.740091280  0.000000000  2.360080060     0.174220574 -0.044245848 -0.000017795
     1.768312070  6.961278400  3.859632720     0.000055237  0.143712231 -0.000134345
     0.002768320  0.007621210  8.153712580    -0.050454035 -0.055220574  0.122712263

  length of vectors
     6.206337551  8.153716286  8.153716612     0.179751227  0.143712304  0.143712285

  position of ions in fractional coordinates (direct lattice)
     0.656786030  0.823416700  0.173395620
     0.389955880  0.223512440  0.001852860
     0.297996770  0.430702960  0.430702960
     0.659403680  0.069297040  0.069297040
     0.153598360  0.326604380  0.676583300
     0.389955880  0.001852860  0.223512440
     0.656786030  0.173395620  0.823416700
     0.702003230  0.569297040  0.569297040
     0.340596320  0.930702960  0.930702960
     0.115320190  0.276487560  0.498147140
     0.846401640  0.323416700  0.673395620
     0.846401640  0.673395620  0.323416700
     0.610044120  0.776487560  0.998147140
     0.201731180  0.074490460  0.074490460
     0.343213970  0.176583300  0.826604380
     0.343213970  0.826604380  0.176583300
     0.153598360  0.676583300  0.326604380
     0.884679810  0.723512440  0.501852860
     0.850711100  0.425509540  0.425509540
     0.884679810  0.501852860  0.723512440
     0.610044120  0.998147140  0.776487560
     0.115320190  0.498147140  0.276487560
     0.149288900  0.574490460  0.574490460
     0.798268820  0.925509540  0.925509540
     0.152054590  0.845426810  0.845426810
     0.342908210  0.654573190  0.654573190
     0.657091790  0.345426810  0.345426810
     0.686075030  0.518362980  0.981637020
     0.313924970  0.018362980  0.481637020
     0.847945410  0.154573190  0.154573190
     0.686075030  0.981637020  0.518362980
     0.313924970  0.481637020  0.018362980

  ion indices of the primitive-cell ions
   primitive index   ion index
                 1           1
                 2           2
                 3           3
                 4           4
                 5           5
                 6           6
                 7           7
                 8           8
                 9           9
                10          10
                11          11
                12          12
                13          13
                14          14
                15          15
                16          16
                17          17
                18          18
                19          19
                20          20
                21          21
                22          22
                23          23
                24          24
                25          25
                26          26
                27          27
                28          28
                29          29
                30          30
                31          31
                32          32

 KPOINTS: EA

Automatic generation of k-mesh.
 Grid dimensions read from file:
 generate k-points for:    6    5    5

 Generating k-lattice:

  Cartesian coordinates                     Fractional coordinates (reciprocal lattice)
     0.029036762 -0.007374308 -0.000002966     0.166666667 -0.000000000 -0.000000000
     0.000011047  0.028742446 -0.000026869    -0.000000000  0.200000000  0.000000000
    -0.010090807 -0.011044115  0.024542453    -0.000000000 -0.000000000  0.200000000

  Length of vectors
     0.029958538  0.028742461  0.028742457

  Shift w.r.t. Gamma in fractional coordinates (k-lattice)
     0.000000000  0.000000000  0.000000000

 WARNING: IBZKPT: internal override: KBLOWUP is changed to .FALSE.
      ... skipping the blow-up phase ...

 Subroutine IBZKPT returns following result:

 Found     48 irreducible k-points:

 Following reciprocal coordinates:
            Coordinates               Weight
  0.000000  0.000000  0.000000      1.000000
  0.166667 -0.000000 -0.000000      2.000000
  0.333333 -0.000000  0.000000      2.000000
  0.500000  0.000000  0.000000      1.000000
 -0.000000  0.200000 -0.000000      4.000000
  0.166667  0.200000  0.000000      4.000000
  0.333333  0.200000 -0.000000      4.000000
  0.500000  0.200000  0.000000      4.000000
 -0.333333  0.200000 -0.000000      4.000000
 -0.166667  0.200000 -0.000000      4.000000
 -0.000000  0.400000 -0.000000      4.000000
  0.166667  0.400000 -0.000000      4.000000
  0.333333  0.400000 -0.000000      4.000000
  0.500000  0.400000  0.000000      4.000000
 -0.333333  0.400000  0.000000      4.000000
 -0.166667  0.400000  0.000000      4.000000
  0.000000  0.200000  0.200000      2.000000
  0.166667  0.200000  0.200000      2.000000
  0.333333  0.200000  0.200000      2.000000
  0.500000  0.200000  0.200000      2.000000
[...]
   0.00000000  0.40000000  0.20000000       0.027
   0.16666667  0.40000000  0.20000000       0.027
   0.33333333  0.40000000  0.20000000       0.027
   0.50000000  0.40000000  0.20000000       0.027
  -0.33333333  0.40000000  0.20000000       0.027
  -0.16666667  0.40000000  0.20000000       0.027
   0.00000000 -0.40000000  0.20000000       0.027
   0.16666667 -0.40000000  0.20000000       0.027
   0.33333333 -0.40000000  0.20000000       0.027
   0.50000000 -0.40000000  0.20000000       0.027
  -0.33333333 -0.40000000  0.20000000       0.027
  -0.16666667 -0.40000000  0.20000000       0.027
   0.00000000 -0.20000000  0.20000000       0.013
   0.16666667 -0.20000000  0.20000000       0.027
   0.33333333 -0.20000000  0.20000000       0.027
   0.50000000 -0.20000000  0.20000000       0.013
   0.00000000  0.40000000  0.40000000       0.013
   0.16666667  0.40000000  0.40000000       0.013
   0.33333333  0.40000000  0.40000000       0.013
   0.50000000  0.40000000  0.40000000       0.013
  -0.33333333  0.40000000  0.40000000       0.013
  -0.16666667  0.40000000  0.40000000       0.013
   0.00000000 -0.40000000  0.40000000       0.013
   0.16666667 -0.40000000  0.40000000       0.027
   0.33333333 -0.40000000  0.40000000       0.027
   0.50000000 -0.40000000  0.40000000       0.013

 position of ions in fractional coordinates (direct lattice)
   0.65678603  0.82341670  0.17339562
   0.38995588  0.22351244  0.00185286
   0.29799677  0.43070296  0.43070296
   0.65940368  0.06929704  0.06929704
   0.15359836  0.32660438  0.67658330
   0.38995588  0.00185286  0.22351244
   0.65678603  0.17339562  0.82341670
   0.70200323  0.56929704  0.56929704
   0.34059632  0.93070296  0.93070296
   0.11532019  0.27648756  0.49814714
   0.84640164  0.32341670  0.67339562
   0.84640164  0.67339562  0.32341670
   0.61004412  0.77648756  0.99814714
   0.20173118  0.07449046  0.07449046
   0.34321397  0.17658330  0.82660438
   0.34321397  0.82660438  0.17658330
   0.15359836  0.67658330  0.32660438
   0.88467981  0.72351244  0.50185286
   0.85071110  0.42550954  0.42550954
   0.88467981  0.50185286  0.72351244
   0.61004412  0.99814714  0.77648756
   0.11532019  0.49814714  0.27648756
   0.14928890  0.57449046  0.57449046
   0.79826882  0.92550954  0.92550954
   0.15205459  0.84542681  0.84542681
   0.34290821  0.65457319  0.65457319
   0.65709179  0.34542681  0.34542681
   0.68607503  0.51836298  0.98163702
   0.31392497  0.01836298  0.48163702
   0.84794541  0.15457319  0.15457319
   0.68607503  0.98163702  0.51836298
   0.31392497  0.48163702  0.01836298

 position of ions in cartesian coordinates  (Angst):
   5.22654947  5.73335437  6.14197170
   2.63362722  1.55594644  1.79811071
   2.47333823  3.00152569  5.87747962
   3.90776794  0.48292412  2.38873475
   1.46108007  2.27874040  7.13974314
   2.24227754  0.01460171  2.74993465
   4.07890881  1.21333062  8.93321413
   5.03783344  3.96737392  8.49594574
   3.60340373  6.48597549 11.98469061
   1.15224374  1.92850336  5.40105392
   5.43218850  2.25652578  8.73651965
   6.05009160  4.69015921  7.23368222
   4.87754445  5.41295317 12.57531465
   1.28988398  0.51911654  1.37098135
   2.28462220  1.23554524  8.23145366
   3.43226286  5.75556899  5.44021123
   2.07898317  4.71237383  5.63690571
   6.35892793  5.04039625  8.97237144
   5.63677097  2.96533327  7.11953934
   5.96757825  3.49905151  9.92419538
   5.26889413  6.95429790 11.62349071
   1.54359342  3.46984810  4.44922998
   1.87440070  4.00356634  7.25388602
   6.22128769  6.44978307 13.00244401
   2.37012607  5.89169457 10.51526520
   3.12762617  4.56165485  8.67290458
   4.38354550  2.40724476  5.70052078
   4.85747830  3.61595028 11.62386884
   1.83576279  0.13150047  4.73889225
   5.14104560  1.07720504  3.85816016
   5.67540888  6.83739914  9.63453311
   2.65369337  3.35294933  2.74955652

 k-point   1 :   0.0000 0.0000 0.0000  plane waves:   10861
 k-point   2 :   0.1667-0.0000-0.0000  plane waves:   10865
 k-point   3 :   0.3333-0.0000 0.0000  plane waves:   10875
 k-point   4 :   0.5000 0.0000 0.0000  plane waves:   10870
 k-point   5 :  -0.0000 0.2000-0.0000  plane waves:   10854
 k-point   6 :   0.1667 0.2000 0.0000  plane waves:   10856
 k-point   7 :   0.3333 0.2000-0.0000  plane waves:   10874
 k-point   8 :   0.5000 0.2000 0.0000  plane waves:   10858
 k-point   9 :  -0.3333 0.2000-0.0000  plane waves:   10858
 k-point  10 :  -0.1667 0.2000-0.0000  plane waves:   10882
 k-point  11 :  -0.0000 0.4000-0.0000  plane waves:   10887
 k-point  12 :   0.1667 0.4000-0.0000  plane waves:   10859
 k-point  13 :   0.3333 0.4000-0.0000  plane waves:   10868
 k-point  14 :   0.5000 0.4000 0.0000  plane waves:   10870
 k-point  15 :  -0.3333 0.4000 0.0000  plane waves:   10854
 k-point  16 :  -0.1667 0.4000 0.0000  plane waves:   10879
 k-point  17 :   0.0000 0.2000 0.2000  plane waves:   10895
 k-point  18 :   0.1667 0.2000 0.2000  plane waves:   10876
 k-point  19 :   0.3333 0.2000 0.2000  plane waves:   10865
 k-point  20 :   0.5000 0.2000 0.2000  plane waves:   10851
 k-point  21 :  -0.3333 0.2000 0.2000  plane waves:   10856
 k-point  22 :  -0.1667 0.2000 0.2000  plane waves:   10877
 k-point  23 :   0.0000 0.4000 0.2000  plane waves:   10885
 k-point  24 :   0.1667 0.4000 0.2000  plane waves:   10878
 k-point  25 :   0.3333 0.4000 0.2000  plane waves:   10877
 k-point  26 :   0.5000 0.4000 0.2000  plane waves:   10860
 k-point  27 :  -0.3333 0.4000 0.2000  plane waves:   10855
 k-point  28 :  -0.1667 0.4000 0.2000  plane waves:   10862
 k-point  29 :   0.0000-0.4000 0.2000  plane waves:   10900
 k-point  30 :   0.1667-0.4000 0.2000  plane waves:   10886
 k-point  31 :   0.3333-0.4000 0.2000  plane waves:   10859
 k-point  32 :   0.5000-0.4000 0.2000  plane waves:   10850
 k-point  33 :  -0.3333-0.4000 0.2000  plane waves:   10860
 k-point  34 :  -0.1667-0.4000 0.2000  plane waves:   10880
 k-point  35 :   0.0000-0.2000 0.2000  plane waves:   10865
 k-point  36 :   0.1667-0.2000 0.2000  plane waves:   10853
 k-point  37 :   0.3333-0.2000 0.2000  plane waves:   10867
 k-point  38 :   0.5000-0.2000 0.2000  plane waves:   10840
 k-point  39 :   0.0000 0.4000 0.4000  plane waves:   10863
 k-point  40 :   0.1667 0.4000 0.4000  plane waves:   10884
 k-point  41 :   0.3333 0.4000 0.4000  plane waves:   10869
 k-point  42 :   0.5000 0.4000 0.4000  plane waves:   10862
 k-point  43 :  -0.3333 0.4000 0.4000  plane waves:   10862
 k-point  44 :  -0.1667 0.4000 0.4000  plane waves:   10866
 k-point  45 :   0.0000-0.4000 0.4000  plane waves:   10888
 k-point  46 :   0.1667-0.4000 0.4000  plane waves:   10863
 k-point  47 :   0.3333-0.4000 0.4000  plane waves:   10850
 k-point  48 :   0.5000-0.4000 0.4000  plane waves:   10844

 maximum and minimum number of plane-waves per node :      5479     5385

 maximum number of plane-waves:     10900
 maximum index in each direction:
   IXMAX=   12   IYMAX=   16   IZMAX=   16
   IXMIN=  -12   IYMIN=  -16   IZMIN=  -16

 parallel 3D FFT for wavefunctions:
    minimum data exchange during FFTs selected (reduces bandwidth)
 parallel 3D FFT for charge:
    minimum data exchange during FFTs selected (reduces bandwidth)

 Broyden mixing: mesh for mixing (old mesh)
   NGX = 25   NGY = 33   NGZ = 33
  (NGX  =100   NGY  =140   NGZ  =140)
  gives a total of  27225 points

 initial charge density was supplied:
 charge density of overlapping atoms calculated
 number of electron     104.0000000 magnetization
 keeping initial charge density in first step

 Maximum index for augmentation-charges        16971 (set IRDMAX)

 First call to EWALD:  gamma=   0.258
 Maximum number of real-space cells 3x 3x 3
 Maximum number of reciprocal cells 3x 3x 3

--------------------------------------- Iteration      1(   1)  ---------------------------------------

 eigenvalue-minimisations  :  6912
 total energy-change (2. order) : 0.2687671E+03  (-0.5676777E+04)
 number of electron     104.0000000 magnetization
 augmentation part      104.0000000 magnetization

 Free energy of the ion-electron system (eV)
  alpha Z        PSCENC =       197.27951422
  Ewald energy   TEWEN  =     -2660.29104917
  -Hartree energ DENC   =      -422.00768735
  -exchange      EXHF   =         0.00000000
  -V(xc)+E(xc)   XCENC  =       174.04510990
  PAW double counting   =      1668.03421710    -1591.17858262
  entropy T*S    EENTRO =        -0.00142715
  eigenvalues    EBANDS =       370.28410109
  atomic energy  EATOM  =      2532.60289448
  free energy    TOTEN  =       268.76709050 eV

  energy without entropy =      268.76851765  energy(sigma->0) =      268.76780407

[...]

 eigenvalue-minimisations  :  8688
 total energy-change (2. order) :-0.5196408E+03  (-0.4970056E+03)
 number of electron     104.0000000 magnetization
 augmentation part      104.0000000 magnetization

[...]

 eigenvalue-minimisations  :     0
 total energy-change (2. order) :-0.7428753E-08  ( 0.1172315E-07)
 number of electron     104.0000000 magnetization
 augmentation part       -2.0490701 magnetization

[...]

 eigenvalue-minimisations  :     0
 total energy-change (2. order) :-0.3263631E-07  ( 0.2750997E-09)
 number of electron     104.0000000 magnetization
 augmentation part       -2.0490776 magnetization

[...]

 eigenvalue-minimisations  :     0
 total energy-change (2. order) :-0.5137190E-07  (-0.2101663E-08)
 number of electron     104.0000000 magnetization
 augmentation part       -2.0490763 magnetization

[...]

--------------------------------------- Iteration      1(  29)  ---------------------------------------

 eigenvalue-minimisations  :     0
 total energy-change (2. order) : 0.9367795E-09  (-0.1493518E-09)
 number of electron     104.0000000 magnetization
 augmentation part       -2.0490744 magnetization

 Free energy of the ion-electron system (eV)
  alpha Z        PSCENC =       197.27951422
  Ewald energy   TEWEN  =     -2660.29104917
  -Hartree energ DENC   =      -548.59391863
  -exchange      EXHF   =         0.00000000
  -V(xc)+E(xc)   XCENC  =       187.94250287
  PAW double counting   =     13429.22125873   -13355.46314434
  entropy T*S    EENTRO =        -0.00000000
  eigenvalues    EBANDS =       -30.57217194
  atomic energy  EATOM  =      2532.60289448
  free energy    TOTEN  =      -247.87411377 eV

  energy without entropy =     -247.87411377  energy(sigma->0) =     -247.87411377

  average scaling for gradient   1.4455

 average (electrostatic) potential at core
  the test charge radii are     0.7672  0.9892
  (the norm of the test charge is              1.0000)
       1 -26.9591       2 -27.4093       3 -27.2415       4 -27.2416       5 -26.9591
       6 -27.4093       7 -26.9591       8 -27.2415       9 -27.2416      10 -27.4093
      11 -26.9591      12 -26.9591      13 -27.4093      14 -27.1729      15 -26.9591
      16 -26.9591      17 -26.9591      18 -27.4093      19 -27.1730      20 -27.4093
      21 -27.4093      22 -27.4093      23 -27.1730      24 -27.1729      25 -86.3354
      26 -86.3354      27 -86.3354      28 -85.7954      29 -85.7954      30 -86.3354
      31 -85.7954      32 -85.7954

 E-fermi :   5.2973     XC(G=0): -11.2973     alpha+bet :-14.0729

 Fermi energy:         5.2973287965

 k-point     1 :       0.0000    0.0000    0.0000
  band No.  band energies     occupation
      1     -10.2410      2.00000
      2      -9.7160      2.00000
      3      -6.5434      2.00000
      4      -6.2995      2.00000
      5      -6.2849      2.00000
      6      -6.2331      2.00000
      7      -5.9305      2.00000
      8      -5.6735      2.00000
      9      -5.2198      2.00000
     10      -4.8259      2.00000
     11      -4.7083      2.00000
     12      -3.7585      2.00000
     13      -3.3899      2.00000
     14      -2.8711      2.00000
     15      -2.4871      2.00000
     16      -1.4471      2.00000
     17      -1.4332      2.00000
     18      -1.4265      2.00000
     19      -1.4155      2.00000
     20      -0.9244      2.00000
     21      -0.8629      2.00000
     22      -0.3702      2.00000
     23      -0.3004      2.00000
     24      -0.2871      2.00000
     25      -0.2171      2.00000
     26       0.7684      2.00000
     27       0.9096      2.00000
     28       0.9882      2.00000
     29       1.3160      2.00000
     30       1.3594      2.00000
     31       1.6048      2.00000
     32       1.7411      2.00000
     33       1.9790      2.00000
     34       2.0563      2.00000
     35       2.2525      2.00000
     36       2.2976      2.00000
     37       2.5819      2.00000
     38       2.6056      2.00000
     39       3.0326      2.00000
     40       3.2196      2.00000
     41       3.2568      2.00000
     42       3.2581      2.00000
     43       3.2769      2.00000
     44       3.5001      2.00000
     45       3.6568      2.00000
     46       3.7772      2.00000
     47       3.8162      2.00000
     48       4.1505      2.00000
     49       4.5875      2.00000
     50       4.8130      2.00000
     51       4.8704      2.00000
     52       5.1983      2.00000
     53       6.9249      0.00000
     54       7.6475      0.00000
     55       7.8060      0.00000
     56       8.2905      0.00000
     57       8.8231      0.00000
     58       8.8747      0.00000
     59       9.2703      0.00000
     60       9.4183      0.00000
     61       9.6526      0.00000
     62       9.7582      0.00000
     63      10.4268      0.00000
     64      10.6715      0.00000
     65      10.8286      0.00000
     66      10.9733      0.00000
     67      10.9781      0.00000
     68      11.5898      0.00000
     69      11.6252      0.00000
     70      12.1052      0.00000
     71      12.1412      0.00000
     72      12.2354      0.00000

[...]

 k-point    48 :       0.5000   -0.4000    0.4000
  band No.  band energies     occupation
      1      -9.9101      2.00000
      2      -9.8991      2.00000
      3      -7.0071      2.00000
      4      -6.8812      2.00000
      5      -6.3527      2.00000
      6      -6.2221      2.00000
      7      -5.8718      2.00000
      8      -5.8130      2.00000
      9      -5.0776      2.00000
     10      -4.9763      2.00000
     11      -3.7961      2.00000
     12      -2.9540      2.00000
     13      -2.6754      2.00000
     14      -2.3983      2.00000
     15      -2.2923      2.00000
     16      -2.2426      2.00000
     17      -2.1873      2.00000
     18      -1.9341      2.00000
     19      -1.1453      2.00000
     20      -1.0192      2.00000
     21      -0.6830      2.00000
     22      -0.5781      2.00000
     23      -0.2280      2.00000
     24      -0.2044      2.00000
     25      -0.0239      2.00000
     26       0.0231      2.00000
     27       0.6524      2.00000
     28       0.9304      2.00000
     29       1.3413      2.00000
     30       1.4490      2.00000
     31       1.8552      2.00000
     32       1.8777      2.00000
     33       2.1643      2.00000
     34       2.1880      2.00000
     35       2.3890      2.00000
     36       2.4712      2.00000
     37       2.7606      2.00000
     38       2.9592      2.00000
     39       2.9779      2.00000
     40       3.1380      2.00000
     41       3.1694      2.00000
     42       3.2246      2.00000
     43       3.2634      2.00000
     44       3.3938      2.00000
     45       3.5380      2.00000
     46       4.0006      2.00000
     47       4.0642      2.00000
     48       4.1682      2.00000
     49       4.4552      2.00000
     50       4.4594      2.00000
     51       4.6956      2.00000
     52       4.6981      2.00000
     53       7.5106      0.00000
     54       7.5249      0.00000
     55       7.8955      0.00000
     56       8.1143      0.00000
     57       8.4141      0.00000
     58       8.4550      0.00000
     59       8.5512      0.00000
     60       8.8731      0.00000
     61       9.6332      0.00000
     62       9.6736      0.00000
     63      10.0393      0.00000
     64      10.2660      0.00000
     65      10.3028      0.00000
     66      10.3605      0.00000
     67      10.7946      0.00000
     68      10.9785      0.00000
     69      11.3391      0.00000
     70      11.3819      0.00000
     71      11.7773      0.00000
     72      11.9120      0.00000

 soft charge-density along one line, spin component           1
         0         1         2         3         4         5         6         7         8         9
 total charge-density along one line

------------------------ aborting loop because EDIFF is reached ----------------------------------------

  FREE ENERGIE OF THE ION-ELECTRON SYSTEM (eV)
  free  energy   TOTEN  =      -247.87411377 eV

  energy  without entropy=     -247.87411377  energy(sigma->0) =     -247.87411377

 writing wavefunctions