 vasp.6.2.0 18Jan21 (build Jan 05 2022 15:41:44) complex

 executed on             LinuxIFC date 2025.05.07  21:12:03

 INCAR:
   SYSTEM = routine with relax: pwdword
   ICHARG = 2
   NPAR = 6
   KPAR = 2
   NCORE = 2
   ADDGRID = T
   PREC = Acc
   ENCUT = 600
   METAGGA = R2SCAN
   LASPH = .TRUE.
   LMIXTAU = .FALSE.
   ALGO = A
   EDIFF = 1E-9
   NELM = 100
   NELMIN = 6
   IALGO = 38
   LREAL = F
   NSW = 0
   ISIF = -1
   ISMEAR = 0
   SIGMA = 0.02

 POTCAR:    PAW_PBE B 06Sep2000
 POTCAR:    PAW_PBE Mo_sv 02Feb2006
 POTCAR:    PAW_PBE Si 05Jan2001
|           W    W    AA    RRRRR   N    N  II  N    N   GGGG   !!!           |
|           W    W   A  A   R    R  NN   N  II  NN   N  G    G  !!!           |
|           W    W  A    A  R    R  N N  N  II  N N  N  G       !!!           |
|           W WW W  AAAAAA  RRRRR   N  N N  II  N  N N  G  GGG   !            |
|           WW  WW  A    A  R   R   N   NN  II  N   NN  G    G                |
|           W    W  A    A  R    R  N    N  II  N    N   GGGG   !!!           |
|     For optimal performance we recommend to set                             |
|       NCORE = 2 up to number-of-cores-per-socket                            |
|     This setting can greatly improve the performance of VASP for DFT.       |
|     The default, NCORE=1 might be grossly inefficient on modern             |
|     multi-core architectures or massively parallel machines. Do your        |
|     Unfortunately you need to use the default for GW and RPA                |
|     calculations (for HF NCORE is supported but not extensively tested      |
|     yet).                                                                   |

 POTCAR:    PAW_PBE B 06Sep2000
   VRHFIN =B: s2p1

   TITEL  = PAW_PBE B 06Sep2000
   POMASS =   10.811; ZVAL   =    3.000    mass and valenz
   ENMAX  =  318.614; ENMIN  =  238.960 eV

 POTCAR:    PAW_PBE Mo_sv 02Feb2006
   VRHFIN =Mo: 4p5s4d

   TITEL  = PAW_PBE Mo_sv 02Feb2006
   POMASS =   95.940; ZVAL   =   14.000    mass and valenz
   ENMAX  =  242.676; ENMIN  =  182.007 eV

 POTCAR:    PAW_PBE Si 05Jan2001
   VRHFIN =Si: s2p2

   TITEL  = PAW_PBE Si 05Jan2001
   POMASS =   28.085; ZVAL   =    4.000    mass and valenz
   ENMAX  =  245.345; ENMIN  =  184.009 eV

  PAW_PBE B 06Sep2000                   :
  PAW_PBE Mo_sv 02Feb2006               :
  PAW_PBE Si 05Jan2001                  :

 POSCAR: EA242
  positions in direct lattice

 METAGGA = R2SCA    LMAXTAU =  6    LMIXTAU =  F

 ion  position               nearest neighbor table
   1  0.250  0.250  0.000-  11 2.41  12 2.41   4 2.41   9 2.41  10 2.41   7 2.41
   2  0.750  0.750  0.000-  11 2.41  12 2.41   4 2.41   9 2.41   7 2.41  10 2.41
   3  0.249  0.749  0.998-   4 2.41   9 2.41  11 2.41  12 2.41   8 3.41   6 3.41   6 3.41   8 3.41

   4  0.500  0.000  0.000-   3 2.41   5 2.41   1 2.41   2 2.41   7 3.41  10 3.41  10 3.41   7 3.41

[...]

  11  0.000  0.000  0.000-   1 2.41   2 2.41   3 2.41   5 2.41   8 2.41   6 2.41
  12  0.500  0.500  0.000-   1 2.41   2 2.41   3 2.41   5 2.41   6 2.41   8 2.41

  LATTYP: Found a body centered tetragonal cell.
 ALAT       =     6.8123848004
 C/A-ratio  =     1.4140042635

  Lattice vectors:

 A1 = (   5.8995496687,   0.0000000000,  -3.4054201801)
 A2 = (  -1.9668634209,   5.5620261216,  -3.4054201801)
 A3 = (   0.0000000000,   0.0000000000,   6.8118700000)

Analysis of symmetry for initial positions (statically):
 Subroutine PRICEL returns:
 Original cell was already a primitive cell.

 Routine SETGRP: Setting up the symmetry group for a
 body centered tetragonal supercell.

 Subroutine GETGRP returns: Found  4 space group operations
 (whereof  2 operations were pure point group operations)
 out of a pool of 16 trial point group operations.

The static configuration has the point symmetry S_2 .
 The point group associated with its full space group is C_2h.

Analysis of symmetry for dynamics (positions and initial velocities):
 Subroutine PRICEL returns:
 Original cell was already a primitive cell.

 Routine SETGRP: Setting up the symmetry group for a
 body centered tetragonal supercell.

 Subroutine GETGRP returns: Found  4 space group operations
 (whereof  2 operations were pure point group operations)
 out of a pool of 16 trial point group operations.

The dynamic configuration has the point symmetry S_2 .
 The point group associated with its full space group is C_2h.

 Subroutine INISYM returns: Found  4 space group operations
 (whereof  2 operations are pure point group operations),
 and found     1 'primitive' translations

                                     Primitive cell

  volume of cell :     223.5210

  direct lattice vectors                    reciprocal lattice vectors
     5.899549669  0.000000000 -3.405420180     0.169504463  0.059940770  0.000000000
    -1.966863421  5.562026122 -3.405420180     0.000000000  0.179790598  0.000000000
     0.000000000  0.000000000  6.811870000     0.084739421  0.119847566  0.146802567

  length of vectors
     6.811870000  6.811870000  6.811870000     0.179790598  0.179790598  0.207593839

  position of ions in fractional coordinates (direct lattice)
     0.250000000  0.250000000  0.000000000
     0.750000000  0.750000000  0.000000000
     0.249200000  0.749200000  0.998390000
     0.500000000  0.000000000  0.000000000
     0.750800000  0.250800000  0.001610000
     0.749200000  0.750800000  0.500000000
     0.000000000  0.000000000  0.500000000
     0.250800000  0.249200000  0.500000000
     1.000000000  0.500000000  0.000000000
     0.500000000  0.500000000  0.500000000
     0.000000000  0.000000000  0.000000000
     0.500000000  0.500000000  0.000000000

  ion indices of the primitive-cell ions
   primitive index   ion index
                 1           1
                 2           2
                 3           3
                 4           4
                 5           5
                 6           6
                 7           7
                 8           8
                 9           9
                10          10
                11          11
                12          12

 KPOINTS: EA

Automatic generation of k-mesh.
 Grid dimensions read from file:
 generate k-points for:    6    6    7

 Generating k-lattice:

  Cartesian coordinates                     Fractional coordinates (reciprocal lattice)
     0.028250744  0.009990128  0.000000000     0.166666667 -0.000000000  0.000000000
     0.000000000  0.029965100  0.000000000     0.000000000  0.166666667  0.000000000
     0.012105632  0.017121081  0.020971795     0.000000000  0.000000000  0.142857143

  Length of vectors
     0.029965100  0.029965100  0.029656263

  Shift w.r.t. Gamma in fractional coordinates (k-lattice)
     0.000000000  0.000000000  0.000000000

 WARNING: IBZKPT: internal override: KBLOWUP is changed to .FALSE.
      ... skipping the blow-up phase ...

 Subroutine IBZKPT returns following result:

 Found     76 irreducible k-points:

 Following reciprocal coordinates:
            Coordinates               Weight
  0.000000  0.000000  0.000000      1.000000
  0.166667  0.000000  0.000000      4.000000
  0.333333  0.000000  0.000000      4.000000
  0.500000  0.000000  0.000000      2.000000
  0.166667  0.166667  0.000000      2.000000
  0.333333  0.166667  0.000000      4.000000
  0.500000  0.166667  0.000000      4.000000
 -0.333333  0.166667  0.000000      4.000000
 -0.166667  0.166667  0.000000      2.000000
  0.333333  0.333333  0.000000      2.000000
  0.500000  0.333333  0.000000      4.000000
 -0.333333  0.333333  0.000000      2.000000
  0.500000  0.500000  0.000000      1.000000
  0.000000 -0.000000  0.142857      2.000000
  0.166667 -0.000000  0.142857      4.000000
  0.333333  0.000000  0.142857      4.000000
  0.500000 -0.000000  0.142857      4.000000
 -0.333333  0.000000  0.142857      4.000000
 -0.166667  0.000000  0.142857      4.000000
  0.166667  0.166667  0.142857      2.000000
  0.333333  0.166667  0.142857      4.000000
  0.500000  0.166667  0.142857      4.000000
 -0.333333  0.166667  0.142857      4.000000
 -0.166667  0.166667  0.142857      4.000000
  0.333333  0.333333  0.142857      2.000000
  0.500000  0.333333  0.142857      4.000000
 -0.333333  0.333333  0.142857      4.000000
 -0.166667  0.333333  0.142857      4.000000
  0.500000  0.500000  0.142857      2.000000
 -0.333333  0.500000  0.142857      4.000000
 -0.166667  0.500000  0.142857      4.000000
 -0.333333 -0.333333  0.142857      2.000000
 -0.166667 -0.333333  0.142857      4.000000
 -0.166667 -0.166667  0.142857      2.000000
  0.000000 -0.000000  0.285714      2.000000
  0.166667 -0.000000  0.285714      4.000000
  0.333333  0.000000  0.285714      4.000000
  0.500000 -0.000000  0.285714      4.000000
 -0.333333  0.000000  0.285714      4.000000
 -0.166667 -0.000000  0.285714      4.000000
  0.166667  0.166667  0.285714      2.000000
  0.333333  0.166667  0.285714      4.000000
  0.500000  0.166667  0.285714      4.000000
 -0.333333  0.166667  0.285714      4.000000
 -0.166667  0.166667  0.285714      4.000000
  0.333333  0.333333  0.285714      2.000000
  0.500000  0.333333  0.285714      4.000000
 -0.333333  0.333333  0.285714      4.000000
 -0.166667  0.333333  0.285714      4.000000
  0.500000  0.500000  0.285714      2.000000
 -0.333333  0.500000  0.285714      4.000000
 -0.166667  0.500000  0.285714      4.000000
 -0.333333 -0.333333  0.285714      2.000000
 -0.166667 -0.333333  0.285714      4.000000
 -0.166667 -0.166667  0.285714      2.000000
  0.000000 -0.000000  0.428571      2.000000
  0.166667 -0.000000  0.428571      4.000000
  0.333333 -0.000000  0.428571      4.000000
  0.500000 -0.000000  0.428571      4.000000
 -0.333333 -0.000000  0.428571      4.000000
 -0.166667 -0.000000  0.428571      4.000000
  0.166667  0.166667  0.428571      2.000000
  0.333333  0.166667  0.428571      4.000000
  0.500000  0.166667  0.428571      4.000000
 -0.333333  0.166667  0.428571      4.000000
 -0.166667  0.166667  0.428571      4.000000
  0.333333  0.333333  0.428571      2.000000
  0.500000  0.333333  0.428571      4.000000
 -0.333333  0.333333  0.428571      4.000000
 -0.166667  0.333333  0.428571      4.000000
  0.500000  0.500000  0.428571      2.000000
 -0.333333  0.500000  0.428571      4.000000
 -0.166667  0.500000  0.428571      4.000000
 -0.333333 -0.333333  0.428571      2.000000
 -0.166667 -0.333333  0.428571      4.000000
 -0.166667 -0.166667  0.428571      2.000000

 Following cartesian coordinates:
            Coordinates               Weight
  0.000000  0.000000  0.000000      1.000000
  0.028251  0.009990  0.000000      4.000000
  0.056501  0.019980  0.000000      4.000000
  0.084752  0.029970  0.000000      2.000000
  0.028251  0.039955  0.000000      2.000000
  0.056501  0.049945  0.000000      4.000000
  0.084752  0.059935  0.000000      4.000000
 -0.056501  0.009985  0.000000      4.000000
 -0.028251  0.019975  0.000000      2.000000
  0.056501  0.079910  0.000000      2.000000
  0.084752  0.089901  0.000000      4.000000
 -0.056501  0.039950  0.000000      2.000000
  0.084752  0.119866  0.000000      1.000000
  0.012106  0.017121  0.020972      2.000000
[...]
  -0.16666667  0.50000000  0.28571429       0.016
  -0.33333333 -0.33333333  0.28571429       0.008
  -0.16666667 -0.33333333  0.28571429       0.016
  -0.16666667 -0.16666667  0.28571429       0.008
   0.00000000 -0.00000000  0.42857143       0.008
   0.16666667 -0.00000000  0.42857143       0.016
   0.33333333 -0.00000000  0.42857143       0.016
   0.50000000 -0.00000000  0.42857143       0.016
  -0.33333333 -0.00000000  0.42857143       0.016
  -0.16666667 -0.00000000  0.42857143       0.016
   0.16666667  0.16666667  0.42857143       0.008
   0.33333333  0.16666667  0.42857143       0.016
   0.50000000  0.16666667  0.42857143       0.016
  -0.33333333  0.16666667  0.42857143       0.016
  -0.16666667  0.16666667  0.42857143       0.016
   0.33333333  0.33333333  0.42857143       0.008
   0.50000000  0.33333333  0.42857143       0.016
  -0.33333333  0.33333333  0.42857143       0.016
  -0.16666667  0.33333333  0.42857143       0.016
   0.50000000  0.50000000  0.42857143       0.008
  -0.33333333  0.50000000  0.42857143       0.016
  -0.16666667  0.50000000  0.42857143       0.016
  -0.33333333 -0.33333333  0.42857143       0.008
  -0.16666667 -0.33333333  0.42857143       0.016
  -0.16666667 -0.16666667  0.42857143       0.008

 position of ions in fractional coordinates (direct lattice)
   0.25000000  0.25000000  0.00000000
   0.75000000  0.75000000  0.00000000
   0.24920000  0.74920000  0.99839000
   0.50000000  0.00000000  0.00000000
   0.75080000  0.25080000  0.00161000
   0.74920000  0.75080000  0.50000000
   0.00000000  0.00000000  0.50000000
   0.25080000  0.24920000  0.50000000
   0.00000000  0.50000000  0.00000000
   0.50000000  0.50000000  0.50000000
   0.00000000  0.00000000  0.00000000
   0.50000000  0.50000000  0.00000000

 position of ions in cartesian coordinates  (Angst):
   0.98317156  1.39050653 -1.70271009
   2.94951469  4.17151959 -5.10813027
  -0.00340630  4.16706997  3.40093138
   2.94977483  0.00000000 -1.70271009
   3.93609255  1.39495615 -3.39990174
   2.94322156  4.17596921 -1.70219527
   0.00000000  0.00000000  3.40593500
   0.98946469  1.38605691  1.70322491
  -0.98343171  2.78101306 -1.70271009
   1.96634312  2.78101306  0.00051482
   0.00000000  0.00000000  0.00000000
   1.96634312  2.78101306 -3.40542018

 k-point   1 :   0.0000 0.0000 0.0000  plane waves:    7391
 k-point   2 :   0.1667 0.0000 0.0000  plane waves:    7501
 k-point   3 :   0.3333 0.0000 0.0000  plane waves:    7423
 k-point   4 :   0.5000 0.0000 0.0000  plane waves:    7456
 k-point   5 :   0.1667 0.1667 0.0000  plane waves:    7469
 k-point   6 :   0.3333 0.1667 0.0000  plane waves:    7460
 k-point   7 :   0.5000 0.1667 0.0000  plane waves:    7463
 k-point   8 :  -0.3333 0.1667 0.0000  plane waves:    7450
 k-point   9 :  -0.1667 0.1667 0.0000  plane waves:    7487
 k-point  10 :   0.3333 0.3333 0.0000  plane waves:    7477
 k-point  11 :   0.5000 0.3333 0.0000  plane waves:    7454
 k-point  12 :  -0.3333 0.3333 0.0000  plane waves:    7479
 k-point  13 :   0.5000 0.5000 0.0000  plane waves:    7488
 k-point  14 :   0.0000-0.0000 0.1429  plane waves:    7499
 k-point  15 :   0.1667-0.0000 0.1429  plane waves:    7466
 k-point  16 :   0.3333 0.0000 0.1429  plane waves:    7463
 k-point  17 :   0.5000-0.0000 0.1429  plane waves:    7458
 k-point  18 :  -0.3333 0.0000 0.1429  plane waves:    7456
 k-point  19 :  -0.1667 0.0000 0.1429  plane waves:    7497
 k-point  20 :   0.1667 0.1667 0.1429  plane waves:    7461
 k-point  21 :   0.3333 0.1667 0.1429  plane waves:    7465
 k-point  22 :   0.5000 0.1667 0.1429  plane waves:    7461
 k-point  23 :  -0.3333 0.1667 0.1429  plane waves:    7472
 k-point  24 :  -0.1667 0.1667 0.1429  plane waves:    7463
 k-point  25 :   0.3333 0.3333 0.1429  plane waves:    7434
 k-point  26 :   0.5000 0.3333 0.1429  plane waves:    7444
 k-point  27 :  -0.3333 0.3333 0.1429  plane waves:    7463
 k-point  28 :  -0.1667 0.3333 0.1429  plane waves:    7467
 k-point  29 :   0.5000 0.5000 0.1429  plane waves:    7446
 k-point  30 :  -0.3333 0.5000 0.1429  plane waves:    7455
 k-point  31 :  -0.1667 0.5000 0.1429  plane waves:    7457
 k-point  32 :  -0.3333-0.3333 0.1429  plane waves:    7457
 k-point  33 :  -0.1667-0.3333 0.1429  plane waves:    7456
 k-point  34 :  -0.1667-0.1667 0.1429  plane waves:    7493
 k-point  35 :   0.0000-0.0000 0.2857  plane waves:    7463
 k-point  36 :   0.1667-0.0000 0.2857  plane waves:    7456
 k-point  37 :   0.3333 0.0000 0.2857  plane waves:    7470
 k-point  38 :   0.5000-0.0000 0.2857  plane waves:    7460
 k-point  39 :  -0.3333 0.0000 0.2857  plane waves:    7459
 k-point  40 :  -0.1667-0.0000 0.2857  plane waves:    7470
 k-point  41 :   0.1667 0.1667 0.2857  plane waves:    7444
 k-point  42 :   0.3333 0.1667 0.2857  plane waves:    7454
 k-point  43 :   0.5000 0.1667 0.2857  plane waves:    7461
 k-point  44 :  -0.3333 0.1667 0.2857  plane waves:    7461
 k-point  45 :  -0.1667 0.1667 0.2857  plane waves:    7465
 k-point  46 :   0.3333 0.3333 0.2857  plane waves:    7460
 k-point  47 :   0.5000 0.3333 0.2857  plane waves:    7448
 k-point  48 :  -0.3333 0.3333 0.2857  plane waves:    7470
 k-point  49 :  -0.1667 0.3333 0.2857  plane waves:    7461
 k-point  50 :   0.5000 0.5000 0.2857  plane waves:    7468
 k-point  51 :  -0.3333 0.5000 0.2857  plane waves:    7455
 k-point  52 :  -0.1667 0.5000 0.2857  plane waves:    7455
 k-point  53 :  -0.3333-0.3333 0.2857  plane waves:    7455
 k-point  54 :  -0.1667-0.3333 0.2857  plane waves:    7464
 k-point  55 :  -0.1667-0.1667 0.2857  plane waves:    7471
 k-point  56 :   0.0000-0.0000 0.4286  plane waves:    7456
 k-point  57 :   0.1667-0.0000 0.4286  plane waves:    7442
 k-point  58 :   0.3333-0.0000 0.4286  plane waves:    7461
 k-point  59 :   0.5000-0.0000 0.4286  plane waves:    7468
 k-point  60 :  -0.3333-0.0000 0.4286  plane waves:    7458
 k-point  61 :  -0.1667-0.0000 0.4286  plane waves:    7455
 k-point  62 :   0.1667 0.1667 0.4286  plane waves:    7435
 k-point  63 :   0.3333 0.1667 0.4286  plane waves:    7469
 k-point  64 :   0.5000 0.1667 0.4286  plane waves:    7459
 k-point  65 :  -0.3333 0.1667 0.4286  plane waves:    7461
 k-point  66 :  -0.1667 0.1667 0.4286  plane waves:    7444
 k-point  67 :   0.3333 0.3333 0.4286  plane waves:    7464
 k-point  68 :   0.5000 0.3333 0.4286  plane waves:    7450
 k-point  69 :  -0.3333 0.3333 0.4286  plane waves:    7448
 k-point  70 :  -0.1667 0.3333 0.4286  plane waves:    7451
 k-point  71 :   0.5000 0.5000 0.4286  plane waves:    7448
 k-point  72 :  -0.3333 0.5000 0.4286  plane waves:    7455
 k-point  73 :  -0.1667 0.5000 0.4286  plane waves:    7452
 k-point  74 :  -0.3333-0.3333 0.4286  plane waves:    7454
 k-point  75 :  -0.1667-0.3333 0.4286  plane waves:    7454
 k-point  76 :  -0.1667-0.1667 0.4286  plane waves:    7471

 maximum and minimum number of plane-waves per node :      3768     3687

 maximum number of plane-waves:      7501
 maximum index in each direction:
   IXMAX=   13   IYMAX=   13   IZMAX=   13
   IXMIN=  -14   IYMIN=  -14   IZMIN=  -14

 parallel 3D FFT for wavefunctions:
    minimum data exchange during FFTs selected (reduces bandwidth)
 parallel 3D FFT for charge:
    minimum data exchange during FFTs selected (reduces bandwidth)

 Broyden mixing: mesh for mixing (old mesh)
   NGX = 27   NGY = 27   NGZ = 27
  (NGX  =108   NGY  =108   NGZ  =108)
  gives a total of  19683 points

 initial charge density was supplied:
 charge density of overlapping atoms calculated
 number of electron     126.0000000 magnetization
 keeping initial charge density in first step

 Maximum index for augmentation-charges        20077 (set IRDMAX)

 First call to EWALD:  gamma=   0.292
 Maximum number of real-space cells 3x 3x 3
 Maximum number of reciprocal cells 3x 3x 3

--------------------------------------- Iteration      1(   1)  ---------------------------------------

 eigenvalue-minimisations  : 12252
 total energy-change (2. order) : 0.1416601E+04  (-0.8566963E+04)
 number of electron     126.0000000 magnetization
 augmentation part      126.0000000 magnetization

 Free energy of the ion-electron system (eV)
  alpha Z        PSCENC =       628.96055338
  Ewald energy   TEWEN  =    -11133.25713410
  -Hartree energ DENC   =     -3791.39934295
  -exchange      EXHF   =         0.00000000
  -V(xc)+E(xc)   XCENC  =       611.70437807
  PAW double counting   =     12139.29562609   -12091.82663909
  entropy T*S    EENTRO =        -0.00071445
  eigenvalues    EBANDS =      -193.60792311
  atomic energy  EATOM  =     15246.73248675
  free energy    TOTEN  =      1416.60129057 eV

  energy without entropy =     1416.60200503  energy(sigma->0) =     1416.60164780

[...]

 eigenvalue-minimisations  : 13182
 total energy-change (2. order) :-0.1627978E+04  (-0.1590759E+04)
 number of electron     126.0000000 magnetization
 augmentation part      126.0000000 magnetization

[...]

 eigenvalue-minimisations  :     0
 total energy-change (2. order) : 0.7947339E+02  (-0.1858367E+02)
 number of electron     126.0000001 magnetization
 augmentation part       18.9702681 magnetization

[...]

 eigenvalue-minimisations  :     0
 total energy-change (2. order) :-0.4842695E-07  ( 0.8666418E-07)
 number of electron     126.0000001 magnetization
 augmentation part       19.2246047 magnetization

[...]

 eigenvalue-minimisations  :     0
 total energy-change (2. order) :-0.3978494E-07  ( 0.6981142E-06)
 number of electron     126.0000001 magnetization
 augmentation part       19.2246114 magnetization

[...]

--------------------------------------- Iteration      1(  38)  ---------------------------------------

 eigenvalue-minimisations  :     0
 total energy-change (2. order) :-0.1491571E-09  (-0.5276556E-09)
 number of electron     126.0000001 magnetization
 augmentation part       19.2246095 magnetization

 Free energy of the ion-electron system (eV)
  alpha Z        PSCENC =       628.96055338
  Ewald energy   TEWEN  =    -11133.25713410
  -Hartree energ DENC   =     -3638.52220480
  -exchange      EXHF   =         0.00000000
  -V(xc)+E(xc)   XCENC  =       623.44110755
  PAW double counting   =     14706.46603020   -14678.37884691
  entropy T*S    EENTRO =        -0.00394281
  eigenvalues    EBANDS =     -1979.00688530
  atomic energy  EATOM  =     15246.73248675
  free energy    TOTEN  =      -223.56883604 eV

  energy without entropy =     -223.56489323  energy(sigma->0) =     -223.56686463

  average scaling for gradient   0.9155

 average (electrostatic) potential at core
  the test charge radii are     0.7672  1.0818  0.9892
  (the norm of the test charge is              1.0000)
       1 -26.4507       2 -26.4507       3 -78.9431       4 -79.2723       5 -78.9431
       6 -78.9486       7 -79.2810       8 -78.9486       9 -79.2738      10 -79.2810
      11 -84.5106      12 -84.5106

 E-fermi :   7.5491     XC(G=0): -11.9933     alpha+bet :-14.3218

 Fermi energy:         7.5490845919

 k-point     1 :       0.0000    0.0000    0.0000
  band No.  band energies     occupation
      1     -55.4379      2.00000
      2     -55.4198      2.00000
      3     -55.3045      2.00000
      4     -55.2969      2.00000
      5     -55.0346      2.00000
      6     -55.0293      2.00000
      7     -54.9012      2.00000
      8     -54.8848      2.00000
      9     -30.0874      2.00000
     10     -30.0547      2.00000
     11     -28.8682      2.00000
     12     -28.8586      2.00000
     13     -28.7947      2.00000
     14     -28.7906      2.00000
     15     -28.7168      2.00000
     16     -28.6723      2.00000
     17     -28.6711      2.00000
     18     -28.6654      2.00000
     19     -28.6624      2.00000
     20     -28.6618      2.00000
     21     -28.5708      2.00000
     22     -28.5611      2.00000
     23     -28.5514      2.00000
     24     -28.4279      2.00000
     25     -28.3898      2.00000
     26     -28.3800      2.00000
     27     -28.3735      2.00000
     28     -28.3014      2.00000
     29     -28.2434      2.00000
     30     -28.2425      2.00000
     31     -27.3176      2.00000
     32     -27.3037      2.00000
     33      -3.2426      2.00000
     34      -0.6349      2.00000
     35      -0.0960      2.00000
     36       1.6727      2.00000
     37       2.8430      2.00000
     38       2.8457      2.00000
     39       3.1201      2.00000
     40       3.4597      2.00000
     41       3.4935      2.00000
     42       3.4952      2.00000
     43       3.7069      2.00000
     44       3.7084      2.00000
     45       3.7849      2.00000
     46       4.3352      2.00000
     47       4.6093      2.00000
     48       5.3220      2.00000
     49       5.3238      2.00000
     50       5.3635      2.00000
     51       5.3885      2.00000
     52       5.3907      2.00000
     53       5.4649      2.00000
     54       6.8088      2.00000
     55       6.8295      2.00000
     56       6.9978      2.00000
     57       7.0724      2.00000
     58       7.0739      2.00000
     59       7.1208      2.00000
     60       7.1218      2.00000
[...]
     64       7.5720      0.10533
     65       7.5772      0.04640
     66       7.5778      0.04182
     67       7.6378      0.00000
     68       7.7075      0.00000
     69       7.8427      0.00000
     70       7.9680      0.00000
     71       8.7005      0.00000
     72       9.1660      0.00000
     73       9.8517      0.00000
     74       9.8524      0.00000
     75      10.0769      0.00000
     76      10.4116      0.00000
     77      10.4918      0.00000
     78      10.8102      0.00000

[...]

 k-point    76 :      -0.1667   -0.1667    0.4286
  band No.  band energies     occupation
      1     -55.4105      2.00000
      2     -55.3972      2.00000
      3     -55.3461      2.00000
      4     -55.3387      2.00000
      5     -54.9904      2.00000
      6     -54.9847      2.00000
      7     -54.9267      2.00000
      8     -54.9147      2.00000
      9     -29.9152      2.00000
     10     -29.8929      2.00000
     11     -29.4434      2.00000
     12     -29.4349      2.00000
     13     -28.7592      2.00000
     14     -28.7528      2.00000
     15     -28.7360      2.00000
     16     -28.6814      2.00000
     17     -28.6611      2.00000
     18     -28.6608      2.00000
     19     -28.6295      2.00000
     20     -28.5969      2.00000
     21     -28.4881      2.00000
     22     -28.3933      2.00000
     23     -28.3838      2.00000
     24     -28.3789      2.00000
     25     -28.3766      2.00000
     26     -28.2937      2.00000
     27     -28.2757      2.00000
     28     -28.2745      2.00000
     29     -28.0600      2.00000
     30     -28.0518      2.00000
     31     -27.5218      2.00000
     32     -27.5097      2.00000
     33      -2.7008      2.00000
     34      -1.5277      2.00000
     35       0.1842      2.00000
     36       0.9827      2.00000
     37       2.6275      2.00000
     38       3.4311      2.00000
     39       3.4959      2.00000
     40       3.5396      2.00000
     41       3.7773      2.00000
     42       3.9725      2.00000
     43       4.0714      2.00000
     44       4.1229      2.00000
     45       4.1417      2.00000
     46       4.4000      2.00000
     47       4.7839      2.00000
     48       4.9087      2.00000
     49       5.0242      2.00000
     50       5.2897      2.00000
     51       5.3030      2.00000
     52       5.3197      2.00000
     53       5.6966      2.00000
     54       5.7595      2.00000
     55       5.9737      2.00000
     56       6.3037      2.00000
     57       6.4370      2.00000
     58       6.6058      2.00000
     59       6.6389      2.00000
     60       6.8610      2.00000
[...]
     64       7.6323      0.00000
     65       7.6847      0.00000
     66       8.1044      0.00000
     67       8.5193      0.00000
     68       8.7521      0.00000
     69       8.8935      0.00000
     70       8.9544      0.00000
     71       9.0596      0.00000
     72       9.1409      0.00000
     73       9.3075      0.00000
     74       9.4053      0.00000
     75       9.6075      0.00000
     76       9.8787      0.00000
     77      10.0709      0.00000
     78      10.5007      0.00000

 soft charge-density along one line, spin component           1
         0         1         2         3         4         5         6         7         8         9
 total charge-density along one line

------------------------ aborting loop because EDIFF is reached ----------------------------------------

  FREE ENERGIE OF THE ION-ELECTRON SYSTEM (eV)
  free  energy   TOTEN  =      -223.56883604 eV

  energy  without entropy=     -223.56489323  energy(sigma->0) =     -223.56686463

 writing wavefunctions