 vasp.6.2.0 18Jan21 (build Jan 05 2022 15:41:44) complex

 executed on             LinuxIFC date 2025.05.07  14:46:38

 INCAR:
   SYSTEM = routine with relax: pwdword
   ICHARG = 2
   NPAR = 6
   KPAR = 2
   NCORE = 2
   ADDGRID = T
   PREC = Acc
   ENCUT = 600
   METAGGA = R2SCAN
   LASPH = .TRUE.
   LMIXTAU = .FALSE.
   ALGO = A
   EDIFF = 1E-9
   NELM = 100
   NELMIN = 6
   IALGO = 38
   LREAL = F
   NSW = 0
   ISIF = -1
   ISMEAR = 0
   SIGMA = 0.02

 POTCAR:    PAW_PBE B 06Sep2000
 POTCAR:    PAW_PBE Mo_sv 02Feb2006
 POTCAR:    PAW_PBE Si 05Jan2001
|           W    W    AA    RRRRR   N    N  II  N    N   GGGG   !!!           |
|           W    W   A  A   R    R  NN   N  II  NN   N  G    G  !!!           |
|           W    W  A    A  R    R  N N  N  II  N N  N  G       !!!           |
|           W WW W  AAAAAA  RRRRR   N  N N  II  N  N N  G  GGG   !            |
|           WW  WW  A    A  R   R   N   NN  II  N   NN  G    G                |
|           W    W  A    A  R    R  N    N  II  N    N   GGGG   !!!           |
|     For optimal performance we recommend to set                             |
|       NCORE = 2 up to number-of-cores-per-socket                            |
|     This setting can greatly improve the performance of VASP for DFT.       |
|     The default, NCORE=1 might be grossly inefficient on modern             |
|     multi-core architectures or massively parallel machines. Do your        |
|     Unfortunately you need to use the default for GW and RPA                |
|     calculations (for HF NCORE is supported but not extensively tested      |
|     yet).                                                                   |

 POTCAR:    PAW_PBE B 06Sep2000
   VRHFIN =B: s2p1

   TITEL  = PAW_PBE B 06Sep2000
   POMASS =   10.811; ZVAL   =    3.000    mass and valenz
   ENMAX  =  318.614; ENMIN  =  238.960 eV

 POTCAR:    PAW_PBE Mo_sv 02Feb2006
   VRHFIN =Mo: 4p5s4d

   TITEL  = PAW_PBE Mo_sv 02Feb2006
   POMASS =   95.940; ZVAL   =   14.000    mass and valenz
   ENMAX  =  242.676; ENMIN  =  182.007 eV

 POTCAR:    PAW_PBE Si 05Jan2001
   VRHFIN =Si: s2p2

   TITEL  = PAW_PBE Si 05Jan2001
   POMASS =   28.085; ZVAL   =    4.000    mass and valenz
   ENMAX  =  245.345; ENMIN  =  184.009 eV

  PAW_PBE B 06Sep2000                   :
  PAW_PBE Mo_sv 02Feb2006               :
  PAW_PBE Si 05Jan2001                  :

 POSCAR: EA32
  positions in direct lattice

 METAGGA = R2SCA    LMAXTAU =  6    LMIXTAU =  F

 ion  position               nearest neighbor table
   1  0.500  0.000  0.500-   4 1.96   5 1.96
   2  0.000  0.500  0.500-   4 1.96   5 1.96
   3  0.000  0.000  0.000-  11 2.70  12 2.70  13 2.70  14 2.70   9 2.70  10 2.70   7 2.70   8 2.70

   4  0.250  0.750  0.500-   1 1.96   2 1.96  10 2.29  14 2.29  11 2.29   7 2.29
   5  0.750  0.250  0.500-   1 1.96   2 1.96   9 2.29  13 2.29  12 2.29   8 2.29
   6  0.500  0.500  0.000-   7 2.70   8 2.70   9 2.70  10 2.70  13 2.70  14 2.70  11 2.70  12 2.70

   7  0.250  0.473  0.223-   4 2.29   9 2.61  13 2.61   6 2.70   3 2.70
   8  0.750  0.527  0.777-   5 2.29  10 2.61  14 2.61   6 2.70   3 2.70
   9  0.473  0.250  0.223-   5 2.29   7 2.61  11 2.61   6 2.70   3 2.70
  10  0.527  0.750  0.777-   4 2.29   8 2.61  12 2.61   6 2.70   3 2.70
  11  0.250  0.027  0.777-   4 2.29  13 2.61   9 2.61   3 2.70   6 2.70
  12  0.750  0.973  0.223-   5 2.29  14 2.61  10 2.61   3 2.70   6 2.70
  13  0.027  0.250  0.777-   5 2.29  11 2.61   7 2.61   3 2.70   6 2.70
  14  0.973  0.750  0.223-   4 2.29  12 2.61   8 2.61   3 2.70   6 2.70

  LATTYP: Found a body centered tetragonal cell.
 ALAT       =     8.2798288945
 C/A-ratio  =     0.9485384166

  Lattice vectors:

 A1 = (   6.7017485711,   0.0000000000,  -2.1873623825)
 A2 = (  -3.5277299827,   5.6981185561,  -2.1873623825)
 A3 = (   0.0000000000,   0.0000000000,   7.0496800000)

Analysis of symmetry for initial positions (statically):
 Subroutine PRICEL returns following result:

  LATTYP: Found a simple tetragonal cell.
 ALAT       =     5.8547157608
 C/A-ratio  =     0.6707187941

[...]

   2 primitive cells build up your supercell.

 Routine SETGRP: Setting up the symmetry group for a
 body centered tetragonal supercell.

 Subroutine GETGRP returns: Found 16 space group operations
 (whereof 16 operations were pure point group operations)
 out of a pool of 16 trial point group operations.

The static configuration has the point symmetry D_4h.

Analysis of symmetry for dynamics (positions and initial velocities):
 Subroutine PRICEL returns following result:

  LATTYP: Found a simple tetragonal cell.
 ALAT       =     5.8547157608
 C/A-ratio  =     0.6707187941

  Lattice vectors:

 A1 = (  -5.1147392769,   2.8490592780,   0.0000000000)
 A2 = (   1.5870092942,   2.8490592780,   4.8623176175)
 A3 = (   1.5870092942,   2.8490592780,  -2.1873623825)

   2 primitive cells build up your supercell.

 Routine SETGRP: Setting up the symmetry group for a
 body centered tetragonal supercell.

 Subroutine GETGRP returns: Found 16 space group operations
 (whereof 16 operations were pure point group operations)
 out of a pool of 16 trial point group operations.

The dynamic configuration has the point symmetry D_4h.

 Subroutine INISYM returns: Found 16 space group operations
 (whereof 16 operations are pure point group operations),
 and found     2 'primitive' translations

                                     Primitive cell

  volume of cell :     134.6043

  direct lattice vectors                    reciprocal lattice vectors
    -5.114739277  2.849059278  0.000000000    -0.149214789  0.083116999  0.000000000
     1.587009294  2.849059278  4.862317617     0.046298104  0.083116112  0.141850410
     1.587009294  2.849059278 -2.187362383     0.102916685  0.184759937 -0.141850410

  length of vectors
     5.854715761  5.854730556  3.926867895     0.170802485  0.170802053  0.254655880

  position of ions in fractional coordinates (direct lattice)
     0.500000000  0.500000000  0.000000000
     0.000000000  0.000000000  0.000000000
     0.500000000  0.500000000  0.500000000
     0.223060000  0.223060000  0.500000000
     0.776940000  0.776940000  0.500000000
     0.776940000  0.223060000  0.500000000
     0.223060000  0.776940000  0.500000000

  ion indices of the primitive-cell ions
   primitive index   ion index
                 1           1
                 2           3
                 3           4
                 4          12
                 5          11
                 6           9
                 7          10

 KPOINTS: EA

Automatic generation of k-mesh.
 Grid dimensions read from file:
 generate k-points for:    6    6    6

 Generating k-lattice:

  Cartesian coordinates                     Fractional coordinates (reciprocal lattice)
     0.024869132  0.015396587  0.000000000     0.166666667  0.000000000  0.000000000
     0.000000000  0.029249421  0.000000000     0.000000000  0.166666667  0.000000000
     0.007716351  0.013852685  0.023641735     0.000000000  0.000000000  0.166666667

  Length of vectors
     0.029249421  0.029249421  0.028467009

  Shift w.r.t. Gamma in fractional coordinates (k-lattice)
     0.000000000  0.000000000  0.000000000

 Subroutine IBZKPT returns following result:

 Found     30 irreducible k-points:

 Following reciprocal coordinates:
            Coordinates               Weight
  0.000000  0.000000  0.000000      1.000000
  0.166667  0.000000  0.000000      8.000000
  0.333333  0.000000  0.000000      8.000000
  0.500000  0.000000  0.000000      4.000000
  0.166667  0.166667  0.000000      8.000000
  0.333333  0.166667  0.000000     16.000000
  0.500000  0.166667  0.000000     16.000000
 -0.333333  0.166667  0.000000     16.000000
 -0.166667  0.166667  0.000000      4.000000
  0.333333  0.333333  0.000000      8.000000
  0.500000  0.333333  0.000000     16.000000
 -0.333333  0.333333  0.000000      4.000000
  0.500000  0.500000  0.000000      2.000000
  0.166667  0.166667  0.166667      8.000000
  0.333333  0.166667  0.166667      8.000000
 -0.166667  0.166667  0.166667      4.000000
  0.333333  0.333333  0.166667      4.000000
 -0.333333  0.333333  0.166667      8.000000
 -0.166667  0.333333  0.166667      8.000000
  0.500000  0.500000  0.166667      4.000000
 -0.333333  0.500000  0.166667     16.000000
 -0.166667  0.500000  0.166667      8.000000
 -0.333333 -0.333333  0.166667      8.000000
 -0.166667 -0.333333  0.166667      8.000000
 -0.166667 -0.166667  0.166667      2.000000
 -0.333333  0.333333  0.333333      4.000000
  0.500000  0.500000  0.333333      4.000000
 -0.333333  0.500000  0.333333      8.000000
 -0.333333 -0.333333  0.333333      2.000000
  0.500000  0.500000  0.500000      1.000000

 Following cartesian coordinates:
            Coordinates               Weight
  0.000000  0.000000  0.000000      1.000000
  0.024869  0.015397  0.000000      8.000000
  0.049738  0.030793  0.000000      8.000000
  0.074607  0.046190  0.000000      4.000000
  0.024869  0.044646  0.000000      8.000000
  0.049738  0.060043  0.000000     16.000000
  0.074607  0.075439  0.000000     16.000000
 -0.049738 -0.001544  0.000000     16.000000
 -0.024869  0.013853  0.000000      4.000000
  0.049738  0.089292  0.000000      8.000000
  0.074607  0.104689  0.000000     16.000000
 -0.049738  0.027706  0.000000      4.000000
  0.074607  0.133938  0.000000      2.000000
  0.032585  0.058499  0.023642      8.000000
  0.057455  0.073895  0.023642      8.000000
 -0.017153  0.027706  0.023642      4.000000
  0.057455  0.103145  0.023642      4.000000
 -0.042022  0.041558  0.023642      8.000000
 -0.017153  0.056955  0.023642      8.000000
  0.082324  0.147791  0.023642      4.000000
 -0.042022  0.070808  0.023642     16.000000
 -0.017153  0.086204  0.023642      8.000000
 -0.042022 -0.075439  0.023642      8.000000
 -0.017153 -0.060043  0.023642      8.000000
 -0.017153 -0.030793  0.023642      2.000000
 -0.034306  0.055411  0.047283      4.000000
  0.090040  0.161643  0.047283      4.000000
 -0.034306  0.084660  0.047283      8.000000
 -0.034306 -0.061587  0.047283      2.000000
  0.097756  0.175496  0.070925      1.000000

 SYSTEM =  routine with relax: pwdword
 POSCAR =  EA32

 Startparameter for this run:
   NWRITE =      2    write-flag & timer
   PREC   = acc       normal or accurate (medium, high low for compatibility)
   ISTART =      0    job   : 0-new  1-cont  2-samecut
   ICHARG =      2    charge: 1-file 2-atom 10-const
   ISPIN  =      1    spin polarized calculation?
   LNONCOLLINEAR =      F non collinear calculations
   LSORBIT =      F    spin-orbit coupling
   INIWAV =      1    electr: 0-lowe 1-rand  2-diag
   LASPH  =      T    aspherical Exc in radial PAW
   METAGGA=      F    non-selfconsistent MetaGGA calc.

 Electronic Relaxation 1
   ENCUT  =  600.0 eV  44.10 Ry    6.64 a.u.  14.08 14.08 14.08*2*pi/ulx,y,z
   ENINI  =  600.0     initial cutoff
   ENAUG  =  535.5 eV  augmentation charge cutoff
   NELM   =    100;   NELMIN=  6; NELMDL= -5     # of ELM steps
   EDIFF  = 0.1E-08   stopping-criterion for ELM
   LREAL  =      F    real-space projection
   NLSPLINE    = F    spline interpolate recip. space projectors
[...]
   LRPA    =     F    only Hartree local field effects (RPA)
   LNABLA  =     F    use nabla operator in PAW spheres
   LVEL    =     F    velocity operator in full k-point grid
   LINTERFAST=   F  fast interpolation
   KINTER  =     0    interpolate to denser k-point grid
   CSHIFT  =0.1000    complex shift for real part using Kramers Kronig
   OMEGAMAX=  -1.0    maximum frequency
   DEG_THRESHOLD= 0.2000000E-02 threshold for treating states as degnerate
   RTIME   =   -0.100 relaxation time in fs
  (WPLASMAI=    0.000 imaginary part of plasma frequency in eV, 0.658/RTIME)
   DFIELD  = 0.0000000 0.0000000 0.0000000 field for delta impulse in time

 Orbital magnetization related:
   ORBITALMAG=     F  switch on orbital magnetization
   LCHIMAG   =     F  perturbation theory with respect to B field
   DQ        =  0.001000  dq finite difference perturbation B field
   LLRAUG    =     F  two centre corrections for induced B field

 Static calculation
 charge density and potential will be updated during run
 non-spin polarized calculation
 Conjugate gradient for all bands (Freysoldt, et al. PRB 79, 241103 (2009))
 preconditioned conjugated gradient
 perform sub-space diagonalisation
    before iterative eigenvector-optimisation
 modified Broyden-mixing scheme, WC =      100.0
 initial mixing is a Kerker type mixing with AMIX =  0.4000 and BMIX =      1.0000
 Hartree-type preconditioning will be used
 using additional bands           13
 reciprocal scheme for non local part
 use partial core corrections
 no Harris-corrections to forces
 use gradient corrections
 use of overlap-Matrix (Vanderbilt PP)
 Gauss-broadening in eV      SIGMA  =   0.02

  energy-cutoff  :      600.00
  volume of cell :      269.21
      direct lattice vectors                 reciprocal lattice vectors
     6.701748571  0.000000000 -2.187362383     0.149214789  0.092379525  0.000000000
    -3.527729983  5.698118556 -2.187362383     0.000000000  0.175496524  0.000000000
     0.000000000  0.000000000  7.049680000     0.046298104  0.083116112  0.141850410

  length of vectors
     7.049680000  7.049680000  7.049680000     0.175496524  0.175496524  0.170802053

 k-points in units of 2pi/SCALE and weight: EA
   0.00000000  0.00000000  0.00000000       0.005
   0.02486913  0.01539659  0.00000000       0.037
   0.04973826  0.03079317  0.00000000       0.037
   0.07460739  0.04618976  0.00000000       0.019
   0.02486913  0.04464601  0.00000000       0.037
   0.04973826  0.06004260  0.00000000       0.074
   0.07460739  0.07543918  0.00000000       0.074
  -0.04973826 -0.00154375  0.00000000       0.074
  -0.02486913  0.01385283  0.00000000       0.019
   0.04973826  0.08929202  0.00000000       0.037
   0.07460739  0.10468860  0.00000000       0.074
  -0.04973826  0.02770567  0.00000000       0.019
   0.07460739  0.13393802  0.00000000       0.009
   0.03258548  0.05849869  0.02364174       0.037
   0.05745461  0.07389528  0.02364174       0.037
  -0.01715278  0.02770552  0.02364174       0.019
   0.05745461  0.10314470  0.02364174       0.019
  -0.04202191  0.04155835  0.02364174       0.037
  -0.01715278  0.05695494  0.02364174       0.037
   0.08232375  0.14779071  0.02364174       0.019
  -0.04202191  0.07080777  0.02364174       0.074
  -0.01715278  0.08620436  0.02364174       0.037
  -0.04202191 -0.07543933  0.02364174       0.037
  -0.01715278 -0.06004274  0.02364174       0.037
  -0.01715278 -0.03079332  0.02364174       0.009
  -0.03430556  0.05541104  0.04728347       0.019
   0.09004010  0.16164340  0.04728347       0.019
  -0.03430556  0.08466046  0.04728347       0.037
  -0.03430556 -0.06158665  0.04728347       0.009
   0.09775645  0.17549608  0.07092521       0.005

 k-points in reciprocal lattice and weights: EA
   0.00000000  0.00000000  0.00000000       0.005
   0.16666667  0.00000000  0.00000000       0.037
   0.33333333  0.00000000  0.00000000       0.037
   0.50000000  0.00000000  0.00000000       0.019
   0.16666667  0.16666667  0.00000000       0.037
   0.33333333  0.16666667  0.00000000       0.074
   0.50000000  0.16666667  0.00000000       0.074
  -0.33333333  0.16666667  0.00000000       0.074
  -0.16666667  0.16666667  0.00000000       0.019
   0.33333333  0.33333333  0.00000000       0.037
   0.50000000  0.33333333  0.00000000       0.074
  -0.33333333  0.33333333  0.00000000       0.019
   0.50000000  0.50000000  0.00000000       0.009
   0.16666667  0.16666667  0.16666667       0.037
   0.33333333  0.16666667  0.16666667       0.037
  -0.16666667  0.16666667  0.16666667       0.019
   0.33333333  0.33333333  0.16666667       0.019
  -0.33333333  0.33333333  0.16666667       0.037
  -0.16666667  0.33333333  0.16666667       0.037
   0.50000000  0.50000000  0.16666667       0.019
  -0.33333333  0.50000000  0.16666667       0.074
  -0.16666667  0.50000000  0.16666667       0.037
  -0.33333333 -0.33333333  0.16666667       0.037
  -0.16666667 -0.33333333  0.16666667       0.037
  -0.16666667 -0.16666667  0.16666667       0.009
  -0.33333333  0.33333333  0.33333333       0.019
   0.50000000  0.50000000  0.33333333       0.019
  -0.33333333  0.50000000  0.33333333       0.037
  -0.33333333 -0.33333333  0.33333333       0.009
   0.50000000  0.50000000  0.50000000       0.005

 position of ions in fractional coordinates (direct lattice)
   0.50000000  0.00000000  0.50000000
   0.00000000  0.50000000  0.50000000
   0.00000000  0.00000000  0.00000000
   0.25000000  0.75000000  0.50000000
   0.75000000  0.25000000  0.50000000
   0.50000000  0.50000000  0.00000000
   0.25000000  0.47306000  0.22306000
   0.75000000  0.52694000  0.77694000
   0.47306000  0.25000000  0.22306000
   0.52694000  0.75000000  0.77694000
   0.25000000  0.02694000  0.77694000
   0.75000000  0.97306000  0.22306000
   0.02694000  0.25000000  0.77694000
   0.97306000  0.75000000  0.22306000

 position of ions in cartesian coordinates  (Angst):
   3.35087429  0.00000000  2.43115881
  -1.76386499  2.84905928  2.43115881
   0.00000000  0.00000000  0.00000000
  -0.97036034  4.27358892  1.33747762
   4.14437893  1.42452964  1.33747762
   1.58700929  2.84905928 -2.18736238
   0.00660920  2.69555196 -0.00909262
   3.16740939  3.00256659  2.68404786
   2.28839668  1.42452964 -0.00909262
   0.88562191  4.27358892  2.68404786
   1.58040010  0.15350731  4.87141024
   1.59361849  5.54461124 -2.19645501
  -0.70138739  1.42452964  4.87141024
   3.87540598  4.27358892 -2.19645501

 k-point   1 :   0.0000 0.0000 0.0000  plane waves:    8963
 k-point   2 :   0.1667 0.0000 0.0000  plane waves:    8974
 k-point   3 :   0.3333 0.0000 0.0000  plane waves:    8982
 k-point   4 :   0.5000 0.0000 0.0000  plane waves:    8982
 k-point   5 :   0.1667 0.1667 0.0000  plane waves:    8974
 k-point   6 :   0.3333 0.1667 0.0000  plane waves:    8985
 k-point   7 :   0.5000 0.1667 0.0000  plane waves:    8967
 k-point   8 :  -0.3333 0.1667 0.0000  plane waves:    8975
 k-point   9 :  -0.1667 0.1667 0.0000  plane waves:    8979
 k-point  10 :   0.3333 0.3333 0.0000  plane waves:    8990
 k-point  11 :   0.5000 0.3333 0.0000  plane waves:    8982
 k-point  12 :  -0.3333 0.3333 0.0000  plane waves:    8968
 k-point  13 :   0.5000 0.5000 0.0000  plane waves:    8968
 k-point  14 :   0.1667 0.1667 0.1667  plane waves:    8972
 k-point  15 :   0.3333 0.1667 0.1667  plane waves:    8984
 k-point  16 :  -0.1667 0.1667 0.1667  plane waves:    8961
 k-point  17 :   0.3333 0.3333 0.1667  plane waves:    8996
 k-point  18 :  -0.3333 0.3333 0.1667  plane waves:    8972
 k-point  19 :  -0.1667 0.3333 0.1667  plane waves:    8978
 k-point  20 :   0.5000 0.5000 0.1667  plane waves:    8986
 k-point  21 :  -0.3333 0.5000 0.1667  plane waves:    9001
 k-point  22 :  -0.1667 0.5000 0.1667  plane waves:    8994
 k-point  23 :  -0.3333-0.3333 0.1667  plane waves:    8992
 k-point  24 :  -0.1667-0.3333 0.1667  plane waves:    9002
 k-point  25 :  -0.1667-0.1667 0.1667  plane waves:    8984
 k-point  26 :  -0.3333 0.3333 0.3333  plane waves:    9014
 k-point  27 :   0.5000 0.5000 0.3333  plane waves:    9014
 k-point  28 :  -0.3333 0.5000 0.3333  plane waves:    9000
 k-point  29 :  -0.3333-0.3333 0.3333  plane waves:    9016
 k-point  30 :   0.5000 0.5000 0.5000  plane waves:    9056

 maximum and minimum number of plane-waves per node :      4528     4462

 maximum number of plane-waves:      9056
 maximum index in each direction:
   IXMAX=   14   IYMAX=   14   IZMAX=   14
   IXMIN=  -14   IYMIN=  -14   IZMIN=  -14

 parallel 3D FFT for wavefunctions:
    minimum data exchange during FFTs selected (reduces bandwidth)
 parallel 3D FFT for charge:
    minimum data exchange during FFTs selected (reduces bandwidth)

 Broyden mixing: mesh for mixing (old mesh)
   NGX = 29   NGY = 29   NGZ = 29
  (NGX  =112   NGY  =112   NGZ  =112)
  gives a total of  24389 points

 initial charge density was supplied:
 charge density of overlapping atoms calculated
 number of electron      94.0000000 magnetization
 keeping initial charge density in first step

 Maximum index for augmentation-charges        19810 (set IRDMAX)

 First call to EWALD:  gamma=   0.275
 Maximum number of real-space cells 3x 3x 3
 Maximum number of reciprocal cells 3x 3x 3

--------------------------------------- Iteration      1(   1)  ---------------------------------------

 eigenvalue-minimisations  :  3960
 total energy-change (2. order) : 0.6359165E+03  (-0.5606073E+04)
 number of electron      94.0000000 magnetization
 augmentation part       94.0000000 magnetization

 Free energy of the ion-electron system (eV)
  alpha Z        PSCENC =       223.37291826
  Ewald energy   TEWEN  =     -5556.09072440
  -Hartree energ DENC   =     -2617.26591141
  -exchange      EXHF   =         0.00000000
  -V(xc)+E(xc)   XCENC  =       280.48923745
  PAW double counting   =      6694.22834458    -6594.52044824
  entropy T*S    EENTRO =        -0.00086022
  eigenvalues    EBANDS =      -210.29786518
  atomic energy  EATOM  =      8416.00176099
  free energy    TOTEN  =       635.91645183 eV

  energy without entropy =      635.91731205  energy(sigma->0) =      635.91688194

[...]

 eigenvalue-minimisations  :  4272
 total energy-change (2. order) :-0.8087414E+03  (-0.7826187E+03)
 number of electron      94.0000000 magnetization
 augmentation part       94.0000000 magnetization

[...]

 eigenvalue-minimisations  :     0
 total energy-change (2. order) : 0.3528839E-09  (-0.1332596E-08)
 number of electron      94.0000002 magnetization
 augmentation part        7.9410531 magnetization

[...]

--------------------------------------- Iteration      1(  40)  ---------------------------------------

 eigenvalue-minimisations  :     0
 total energy-change (2. order) :-0.3383320E-09  (-0.7503448E-09)
 number of electron      94.0000002 magnetization
 augmentation part        7.9410536 magnetization

 Free energy of the ion-electron system (eV)
  alpha Z        PSCENC =       223.37291826
  Ewald energy   TEWEN  =     -5556.09072440
  -Hartree energ DENC   =     -2585.19247097
  -exchange      EXHF   =         0.00000000
  -V(xc)+E(xc)   XCENC  =       291.09992487
  PAW double counting   =     11798.03494111   -11711.67173656
  entropy T*S    EENTRO =        -0.00346368
  eigenvalues    EBANDS =     -1050.73727297
  atomic energy  EATOM  =      8416.00176099
  free energy    TOTEN  =      -175.18612341 eV

  energy without entropy =     -175.18265973  energy(sigma->0) =     -175.18439157

  average scaling for gradient   1.3802

 average (electrostatic) potential at core
  the test charge radii are     0.7672  1.0818  0.9892
  (the norm of the test charge is              1.0000)
       1 -28.4697       2 -28.4697       3 -80.9500       4 -79.2849       5 -79.2849
       6 -80.9500       7 -86.4500       8 -86.4500       9 -86.4500      10 -86.4500
      11 -86.4500      12 -86.4500      13 -86.4500      14 -86.4500

 E-fermi :   5.6242     XC(G=0): -10.6409     alpha+bet :-12.5944

 Fermi energy:         5.6241824476

 k-point     1 :       0.0000    0.0000    0.0000
  band No.  band energies     occupation
      1     -56.9450      2.00000
      2     -56.9437      2.00000
      3     -55.5586      2.00000
      4     -55.5576      2.00000
      5     -30.6036      2.00000
      6     -30.5667      2.00000
      7     -30.1981      2.00000
      8     -30.1981      2.00000
      9     -30.1940      2.00000
     10     -30.1939      2.00000
     11     -29.3228      2.00000
     12     -29.3218      2.00000
     13     -29.2048      2.00000
     14     -29.2048      2.00000
     15     -29.2001      2.00000
     16     -29.2001      2.00000
     17      -5.3688      2.00000
     18      -3.4611      2.00000
     19      -2.1531      2.00000
     20      -2.1530      2.00000
     21      -1.7014      2.00000
     22      -1.3643      2.00000
     23      -1.3642      2.00000
     24      -0.9350      2.00000
     25      -0.0096      2.00000
     26       0.6535      2.00000
     27       0.7795      2.00000
     28       1.0220      2.00000
     29       1.8073      2.00000
     30       1.8073      2.00000
     31       2.1113      2.00000
     32       2.2524      2.00000
     33       2.2585      2.00000
     34       3.4253      2.00000
     35       3.4253      2.00000
     36       3.8702      2.00000
     37       3.8702      2.00000
     38       4.1945      2.00000
     39       4.4310      2.00000
     40       4.4310      2.00000
     41       4.5342      2.00000
     42       4.6397      2.00000
     43       5.0512      2.00000
     44       5.1856      2.00000
     45       5.3208      2.00000
     46       5.4706      2.00000
     47       5.4706      2.00000
     48       5.5936      1.96977
     49       5.7528      0.00000
     50       6.0215      0.00000
     51       6.3594      0.00000
     52       6.3594      0.00000
     53       7.9460      0.00000
     54       7.9460      0.00000
     55       8.2030      0.00000
     56       8.8627      0.00000
     57       8.9377      0.00000
     58       8.9377      0.00000
     59       9.2622      0.00000
     60      10.0499      0.00000

[...]

 k-point    30 :       0.5000    0.5000    0.5000
  band No.  band energies     occupation
      1     -56.9450      2.00000
      2     -56.9437      2.00000
      3     -55.5586      2.00000
      4     -55.5576      2.00000
      5     -30.6036      2.00000
      6     -30.5667      2.00000
      7     -30.1982      2.00000
      8     -30.1982      2.00000
      9     -30.1939      2.00000
     10     -30.1939      2.00000
     11     -29.3228      2.00000
     12     -29.3218      2.00000
     13     -29.2049      2.00000
     14     -29.2049      2.00000
     15     -29.1999      2.00000
     16     -29.1999      2.00000
     17      -4.6060      2.00000
     18      -4.2573      2.00000
     19      -2.6869      2.00000
     20      -2.1979      2.00000
     21      -2.1979      2.00000
     22      -1.5428      2.00000
     23      -1.5428      2.00000
     24      -0.1039      2.00000
     25       0.0704      2.00000
     26       0.6086      2.00000
     27       1.3181      2.00000
     28       1.5400      2.00000
     29       1.7412      2.00000
     30       2.0960      2.00000
     31       2.0960      2.00000
     32       2.1118      2.00000
     33       3.1093      2.00000
     34       3.2807      2.00000
     35       3.2807      2.00000
     36       3.7068      2.00000
     37       3.9782      2.00000
     38       4.0448      2.00000
     39       4.1405      2.00000
     40       4.1405      2.00000
     41       4.7562      2.00000
     42       5.0581      2.00000
     43       5.1202      2.00000
     44       5.1202      2.00000
     45       5.3255      2.00000
     46       5.5257      2.00000
     47       5.5257      2.00000
     48       6.0248      0.00000
     49       6.0819      0.00000
     50       6.5164      0.00000
     51       6.5164      0.00000
     52       6.9159      0.00000
     53       6.9649      0.00000
     54       7.6440      0.00000
     55       7.6440      0.00000
     56       7.8554      0.00000
     57       8.0515      0.00000
     58       8.0563      0.00000
     59       9.1903      0.00000
     60       9.2066      0.00000

 soft charge-density along one line, spin component           1
         0         1         2         3         4         5         6         7         8         9
 total charge-density along one line

------------------------ aborting loop because EDIFF is reached ----------------------------------------

  FREE ENERGIE OF THE ION-ELECTRON SYSTEM (eV)
  free  energy   TOTEN  =      -175.18612341 eV

  energy  without entropy=     -175.18265973  energy(sigma->0) =     -175.18439157

 writing wavefunctions