 vasp.6.2.0 18Jan21 (build Jan 05 2022 15:41:44) complex

 executed on             LinuxIFC date 2025.05.07  18:05:54

 INCAR:
   SYSTEM = routine with relax: pwdword
   ICHARG = 2
   NPAR = 6
   KPAR = 2
   NCORE = 2
   ADDGRID = T
   PREC = Acc
   ENCUT = 600
   METAGGA = R2SCAN
   LASPH = .TRUE.
   LMIXTAU = .FALSE.
   ALGO = A
   EDIFF = 1E-9
   NELM = 100
   NELMIN = 6
   IALGO = 38
   LREAL = F
   NSW = 0
   ISIF = -1
   ISMEAR = 0
   SIGMA = 0.02
   SYMPREC = 1E-4

 POTCAR:    PAW_PBE B 06Sep2000
 POTCAR:    PAW_PBE Mo_sv 02Feb2006
 POTCAR:    PAW_PBE Si 05Jan2001
|           W    W    AA    RRRRR   N    N  II  N    N   GGGG   !!!           |
|           W    W   A  A   R    R  NN   N  II  NN   N  G    G  !!!           |
|           W    W  A    A  R    R  N N  N  II  N N  N  G       !!!           |
|           W WW W  AAAAAA  RRRRR   N  N N  II  N  N N  G  GGG   !            |
|           WW  WW  A    A  R   R   N   NN  II  N   NN  G    G                |
|           W    W  A    A  R    R  N    N  II  N    N   GGGG   !!!           |
|     For optimal performance we recommend to set                             |
|       NCORE = 2 up to number-of-cores-per-socket                            |
|     This setting can greatly improve the performance of VASP for DFT.       |
|     The default, NCORE=1 might be grossly inefficient on modern             |
|     multi-core architectures or massively parallel machines. Do your        |
|     Unfortunately you need to use the default for GW and RPA                |
|     calculations (for HF NCORE is supported but not extensively tested      |
|     yet).                                                                   |

 POTCAR:    PAW_PBE B 06Sep2000
   VRHFIN =B: s2p1

   TITEL  = PAW_PBE B 06Sep2000
   POMASS =   10.811; ZVAL   =    3.000    mass and valenz
   ENMAX  =  318.614; ENMIN  =  238.960 eV

 POTCAR:    PAW_PBE Mo_sv 02Feb2006
   VRHFIN =Mo: 4p5s4d

   TITEL  = PAW_PBE Mo_sv 02Feb2006
   POMASS =   95.940; ZVAL   =   14.000    mass and valenz
   ENMAX  =  242.676; ENMIN  =  182.007 eV

 POTCAR:    PAW_PBE Si 05Jan2001
   VRHFIN =Si: s2p2

   TITEL  = PAW_PBE Si 05Jan2001
   POMASS =   28.085; ZVAL   =    4.000    mass and valenz
   ENMAX  =  245.345; ENMIN  =  184.009 eV

  PAW_PBE B 06Sep2000                   :
  PAW_PBE Mo_sv 02Feb2006               :
  PAW_PBE Si 05Jan2001                  :

 POSCAR: EA118
  positions in direct lattice

 METAGGA = R2SCA    LMAXTAU =  6    LMIXTAU =  F

 ion  position               nearest neighbor table
   1  0.000  0.000  0.000-   3 1.99   5 1.99  12 2.00  11 2.00   9 2.00  10 2.00   8 2.00   7 2.00
                             4 2.00   6 2.00
   2  0.500  0.500  0.000-   3 1.99   5 1.99  11 2.00  12 2.00   9 2.00  10 2.00   7 2.00   8 2.00
                             4 2.00   6 2.00
   3  0.250  0.250  0.000-   1 1.99   2 1.99  11 2.82  11 2.82  10 2.82   9 2.82  12 2.82  12 2.82
                             9 2.82  10 2.82   8 2.82   8 2.82   4 2.82   6 2.82   7 2.82   7 2.82
   4  0.739  0.239  0.977-  10 0.17   2 2.00   1 2.00  11 2.71  12 2.71   5 2.82   3 2.82   3 2.82
                             5 2.82   8 2.83   7 2.83   8 2.83   7 2.83  12 2.95  11 2.95
   5  0.750  0.750  0.000-   1 1.99   2 1.99  12 2.82  12 2.82  10 2.82   9 2.82  11 2.82  11 2.82
                            10 2.82   9 2.82   7 2.82   7 2.82   4 2.82   6 2.82   8 2.82   8 2.82
   6  0.261  0.761  0.023-   9 0.17   2 2.00   1 2.00  11 2.71  12 2.71   3 2.82   5 2.82   5 2.82
                             3 2.82   7 2.83   8 2.83   8 2.83   7 2.83  12 2.95  11 2.95
   7  0.239  0.261  0.500-  12 0.17   2 2.00   1 2.00  10 2.71   9 2.71   5 2.82   5 2.82   3 2.82
                             3 2.82   6 2.83   4 2.83   4 2.83   6 2.83   9 2.95  10 2.95
   8  0.761  0.739  0.500-  11 0.17   1 2.00   2 2.00   9 2.71  10 2.71   3 2.82   3 2.82   5 2.82
                             5 2.82   4 2.83   6 2.83   6 2.83   4 2.83  10 2.95   9 2.95
   9  0.241  0.741  0.981-   6 0.17   2 2.00   1 2.00   8 2.71   7 2.71   5 2.82   3 2.82   3 2.82
                             5 2.82  12 2.83  11 2.83  12 2.83  11 2.83   8 2.95   7 2.95
  10  0.759  0.259  0.019-   4 0.17   2 2.00   1 2.00   7 2.71   8 2.71   3 2.82   5 2.82   5 2.82
                             3 2.82  11 2.83  12 2.83  11 2.83  12 2.83   7 2.95   8 2.95
  11  0.741  0.759  0.500-   8 0.17   1 2.00   2 2.00   4 2.71   6 2.71   3 2.82   3 2.82   5 2.82
                             5 2.82  10 2.83   9 2.83   9 2.83  10 2.83   4 2.95   6 2.95
  12  0.259  0.241  0.500-   7 0.17   2 2.00   1 2.00   4 2.71   6 2.71   5 2.82   5 2.82   3 2.82
                             3 2.82   9 2.83  10 2.83  10 2.83   9 2.83   4 2.95   6 2.95

  LATTYP: Found a body centered tetragonal cell.
 ALAT       =     5.6611636908
 C/A-ratio  =     1.4062662762

  Lattice vectors:

 A1 = (   4.8981106383,   0.0000000000,  -2.8067640202)
 A2 = (  -1.6450733409,   4.6135909580,  -2.8067640202)
 A3 = (   0.0000000000,   0.0000000000,   5.6453000000)

Analysis of symmetry for initial positions (statically):
 Subroutine PRICEL returns:
 Original cell was already a primitive cell.

 Routine SETGRP: Setting up the symmetry group for a
 body centered tetragonal supercell.

 Subroutine GETGRP returns: Found 16 space group operations
 (whereof  8 operations were pure point group operations)
 out of a pool of 16 trial point group operations.

The static configuration has the point symmetry C_4h.
 The point group associated with its full space group is D_4h.

Analysis of symmetry for dynamics (positions and initial velocities):
 Subroutine PRICEL returns:
 Original cell was already a primitive cell.

 Routine SETGRP: Setting up the symmetry group for a
 body centered tetragonal supercell.

 Subroutine GETGRP returns: Found 16 space group operations
 (whereof  8 operations were pure point group operations)
 out of a pool of 16 trial point group operations.

The dynamic configuration has the point symmetry C_4h.
 The point group associated with its full space group is D_4h.

 Subroutine INISYM returns: Found 16 space group operations
 (whereof  8 operations are pure point group operations),
 and found     1 'primitive' translations

                                     Primitive cell

  volume of cell :     127.5718

  direct lattice vectors                    reciprocal lattice vectors
     4.898110638  0.000000000 -2.806764020     0.204160354  0.072797688  0.000000000
    -1.645073341  4.613590958 -2.806764020     0.000000000  0.216750902  0.000000000
     0.000000000  0.000000000  5.645300000     0.101505666  0.143959500  0.177138505

  length of vectors
     5.645300000  5.645300000  5.645300000     0.216750902  0.216750902  0.249811504

  position of ions in fractional coordinates (direct lattice)
     0.000000000  0.000000000  0.000000000
     0.500000000  0.500000000  1.000000000
     0.250000000  0.250000000  1.000000000
     0.738660000  0.238660000  0.977320000
     0.750000000  0.750000000  1.000000000
     0.261340000  0.761340000  0.022680000
     0.238660000  0.261340000  0.500000000
     0.761340000  0.738660000  0.500000000
     0.240660000  0.740660000  0.981330000
     0.759340000  0.259340000  0.018670000
     0.740660000  0.759340000  0.500000000
     0.259340000  0.240660000  0.500000000

  ion indices of the primitive-cell ions
   primitive index   ion index
                 1           1
                 2           2
                 3           3
                 4           4
                 5           5
                 6           6
                 7           7
                 8           8
                 9           9
                10          10
                11          11
                12          12

 KPOINTS: EA

Automatic generation of k-mesh.
 Grid dimensions read from file:
 generate k-points for:    8    8    9

 Generating k-lattice:

  Cartesian coordinates                     Fractional coordinates (reciprocal lattice)
     0.025520044  0.009099711  0.000000000     0.125000000 -0.000000000  0.000000000
     0.000000000  0.027093863  0.000000000     0.000000000  0.125000000  0.000000000
     0.011278407  0.015995500  0.019682056     0.000000000  0.000000000  0.111111111

  Length of vectors
     0.027093863  0.027093863  0.027756834

  Shift w.r.t. Gamma in fractional coordinates (k-lattice)
     0.000000000  0.000000000  0.000000000

 WARNING: IBZKPT: internal override: KBLOWUP is changed to .FALSE.
      ... skipping the blow-up phase ...

 Subroutine IBZKPT returns following result:

 Found    165 irreducible k-points:

 Following reciprocal coordinates:
            Coordinates               Weight
  0.000000  0.000000  0.000000      1.000000
  0.125000  0.000000  0.000000      4.000000
  0.250000  0.000000  0.000000      4.000000
  0.375000  0.000000  0.000000      4.000000
  0.500000  0.000000  0.000000      2.000000
  0.125000  0.125000  0.000000      2.000000
  0.250000  0.125000  0.000000      4.000000
  0.375000  0.125000  0.000000      4.000000
  0.500000  0.125000  0.000000      4.000000
 -0.375000  0.125000  0.000000      4.000000
 -0.250000  0.125000  0.000000      4.000000
 -0.125000  0.125000  0.000000      2.000000
  0.250000  0.250000  0.000000      2.000000
  0.375000  0.250000  0.000000      4.000000
  0.500000  0.250000  0.000000      4.000000
 -0.375000  0.250000  0.000000      4.000000
 -0.250000  0.250000  0.000000      2.000000
  0.375000  0.375000  0.000000      2.000000
  0.500000  0.375000  0.000000      4.000000
 -0.375000  0.375000  0.000000      2.000000
  0.500000  0.500000  0.000000      1.000000
 -0.000000  0.000000  0.111111      2.000000
  0.125000  0.000000  0.111111      4.000000
  0.250000  0.000000  0.111111      4.000000
  0.375000 -0.000000  0.111111      4.000000
  0.500000  0.000000  0.111111      4.000000
 -0.375000  0.000000  0.111111      4.000000
 -0.250000  0.000000  0.111111      4.000000
 -0.125000  0.000000  0.111111      4.000000
  0.125000  0.125000  0.111111      2.000000
  0.250000  0.125000  0.111111      4.000000
  0.375000  0.125000  0.111111      4.000000
  0.500000  0.125000  0.111111      4.000000
 -0.375000  0.125000  0.111111      4.000000
 -0.250000  0.125000  0.111111      4.000000
 -0.125000  0.125000  0.111111      4.000000
  0.250000  0.250000  0.111111      2.000000
  0.375000  0.250000  0.111111      4.000000
  0.500000  0.250000  0.111111      4.000000
 -0.375000  0.250000  0.111111      4.000000
 -0.250000  0.250000  0.111111      4.000000
 -0.125000  0.250000  0.111111      4.000000
  0.375000  0.375000  0.111111      2.000000
  0.500000  0.375000  0.111111      4.000000
 -0.375000  0.375000  0.111111      4.000000
 -0.250000  0.375000  0.111111      4.000000
 -0.125000  0.375000  0.111111      4.000000
  0.500000  0.500000  0.111111      2.000000
 -0.375000  0.500000  0.111111      4.000000
 -0.250000  0.500000  0.111111      4.000000
 -0.125000  0.500000  0.111111      4.000000
 -0.375000 -0.375000  0.111111      2.000000
 -0.250000 -0.375000  0.111111      4.000000
 -0.125000 -0.375000  0.111111      4.000000
 -0.250000 -0.250000  0.111111      2.000000
[...]
  -0.25000000  0.37500000  0.11111111       0.007
  -0.12500000  0.37500000  0.11111111       0.007
   0.50000000  0.50000000  0.11111111       0.003
  -0.37500000  0.50000000  0.11111111       0.007
  -0.25000000  0.50000000  0.11111111       0.007
  -0.12500000  0.50000000  0.11111111       0.007
  -0.37500000 -0.37500000  0.11111111       0.003
  -0.25000000 -0.37500000  0.11111111       0.007
  -0.12500000 -0.37500000  0.11111111       0.007
  -0.25000000 -0.25000000  0.11111111       0.003
  -0.12500000 -0.25000000  0.11111111       0.007
  -0.12500000 -0.12500000  0.11111111       0.003
  -0.00000000  0.00000000  0.22222222       0.003
   0.12500000  0.00000000  0.22222222       0.007
   0.25000000  0.00000000  0.22222222       0.007
[...]
   0.37500000  0.37500000  0.44444444       0.003
   0.50000000  0.37500000  0.44444444       0.007
  -0.37500000  0.37500000  0.44444444       0.007
  -0.25000000  0.37500000  0.44444444       0.007
  -0.12500000  0.37500000  0.44444444       0.007
   0.50000000  0.50000000  0.44444444       0.003
  -0.37500000  0.50000000  0.44444444       0.007
  -0.25000000  0.50000000  0.44444444       0.007
  -0.12500000  0.50000000  0.44444444       0.007
  -0.37500000 -0.37500000  0.44444444       0.003
  -0.25000000 -0.37500000  0.44444444       0.007
  -0.12500000 -0.37500000  0.44444444       0.007
  -0.25000000 -0.25000000  0.44444444       0.003
  -0.12500000 -0.25000000  0.44444444       0.007
  -0.12500000 -0.12500000  0.44444444       0.003

 position of ions in fractional coordinates (direct lattice)
   0.00000000  0.00000000  0.00000000
   0.50000000  0.50000000  0.00000000
   0.25000000  0.25000000  0.00000000
   0.73866000  0.23866000  0.97732000
   0.75000000  0.75000000  0.00000000
   0.26134000  0.76134000  0.02268000
   0.23866000  0.26134000  0.50000000
   0.76134000  0.73866000  0.50000000
   0.24066000  0.74066000  0.98133000
   0.75934000  0.25934000  0.01867000
   0.74066000  0.75934000  0.50000000
   0.25934000  0.24066000  0.50000000

 position of ions in cartesian coordinates  (Angst):
   0.00000000  0.00000000  0.00000000
   1.62651865  2.30679548 -2.80676402
   0.81325932  1.15339774 -1.40338201
   3.22542520  1.10107962  2.77415798
   2.43977797  3.46019322 -4.21014603
   0.02761210  3.51251134 -2.74238602
   0.73905962  1.20571586  1.41926799
   2.51397768  3.40787510 -1.38749603
  -0.03966071  3.41710228  2.78556858
   3.29269801  1.19648868 -2.75379662
   2.37866463  3.50328416 -1.38749603
   0.87437266  1.11030680  1.41926799

 k-point   1 :   0.0000 0.0000 0.0000  plane waves:    4279
 k-point   2 :   0.1250 0.0000 0.0000  plane waves:    4268
 k-point   3 :   0.2500 0.0000 0.0000  plane waves:    4257
 k-point   4 :   0.3750 0.0000 0.0000  plane waves:    4250
 k-point   5 :   0.5000 0.0000 0.0000  plane waves:    4284
 k-point   6 :   0.1250 0.1250 0.0000  plane waves:    4274
 k-point   7 :   0.2500 0.1250 0.0000  plane waves:    4261
 k-point   8 :   0.3750 0.1250 0.0000  plane waves:    4263
 k-point   9 :   0.5000 0.1250 0.0000  plane waves:    4263
 k-point  10 :  -0.3750 0.1250 0.0000  plane waves:    4261
 k-point  11 :  -0.2500 0.1250 0.0000  plane waves:    4257
 k-point  12 :  -0.1250 0.1250 0.0000  plane waves:    4268
 k-point  13 :   0.2500 0.2500 0.0000  plane waves:    4256
 k-point  14 :   0.3750 0.2500 0.0000  plane waves:    4261
 k-point  15 :   0.5000 0.2500 0.0000  plane waves:    4253
 k-point  16 :  -0.3750 0.2500 0.0000  plane waves:    4248
 k-point  17 :  -0.2500 0.2500 0.0000  plane waves:    4246
 k-point  18 :   0.3750 0.3750 0.0000  plane waves:    4247
 k-point  19 :   0.5000 0.3750 0.0000  plane waves:    4249
 k-point  20 :  -0.3750 0.3750 0.0000  plane waves:    4248
 k-point  21 :   0.5000 0.5000 0.0000  plane waves:    4240
 k-point  22 :  -0.0000 0.0000 0.1111  plane waves:    4268
 k-point  23 :   0.1250 0.0000 0.1111  plane waves:    4262
 k-point  24 :   0.2500 0.0000 0.1111  plane waves:    4260
 k-point  25 :   0.3750-0.0000 0.1111  plane waves:    4263
 k-point  26 :   0.5000 0.0000 0.1111  plane waves:    4265
 k-point  27 :  -0.3750 0.0000 0.1111  plane waves:    4262
 k-point  28 :  -0.2500 0.0000 0.1111  plane waves:    4274
 k-point  29 :  -0.1250 0.0000 0.1111  plane waves:    4271
 k-point  30 :   0.1250 0.1250 0.1111  plane waves:    4248
 k-point  31 :   0.2500 0.1250 0.1111  plane waves:    4264
 k-point  32 :   0.3750 0.1250 0.1111  plane waves:    4263
 k-point  33 :   0.5000 0.1250 0.1111  plane waves:    4262
 k-point  34 :  -0.3750 0.1250 0.1111  plane waves:    4243
 k-point  35 :  -0.2500 0.1250 0.1111  plane waves:    4255
 k-point  36 :  -0.1250 0.1250 0.1111  plane waves:    4269
 k-point  37 :   0.2500 0.2500 0.1111  plane waves:    4255
 k-point  38 :   0.3750 0.2500 0.1111  plane waves:    4258
 k-point  39 :   0.5000 0.2500 0.1111  plane waves:    4249
 k-point  40 :  -0.3750 0.2500 0.1111  plane waves:    4247
 k-point  41 :  -0.2500 0.2500 0.1111  plane waves:    4243
 k-point  42 :  -0.1250 0.2500 0.1111  plane waves:    4260
 k-point  43 :   0.3750 0.3750 0.1111  plane waves:    4249
 k-point  44 :   0.5000 0.3750 0.1111  plane waves:    4250
 k-point  45 :  -0.3750 0.3750 0.1111  plane waves:    4248
 k-point  46 :  -0.2500 0.3750 0.1111  plane waves:    4257
 k-point  47 :  -0.1250 0.3750 0.1111  plane waves:    4266
 k-point  48 :   0.5000 0.5000 0.1111  plane waves:    4264
 k-point  49 :  -0.3750 0.5000 0.1111  plane waves:    4255
 k-point  50 :  -0.2500 0.5000 0.1111  plane waves:    4268
 k-point  51 :  -0.1250 0.5000 0.1111  plane waves:    4272
 k-point  52 :  -0.3750-0.3750 0.1111  plane waves:    4256
 k-point  53 :  -0.2500-0.3750 0.1111  plane waves:    4259
 k-point  54 :  -0.1250-0.3750 0.1111  plane waves:    4257
 k-point  55 :  -0.2500-0.2500 0.1111  plane waves:    4254
 k-point  56 :  -0.1250-0.2500 0.1111  plane waves:    4253
 k-point  57 :  -0.1250-0.1250 0.1111  plane waves:    4255
 k-point  58 :  -0.0000 0.0000 0.2222  plane waves:    4254
 k-point  59 :   0.1250 0.0000 0.2222  plane waves:    4247
 k-point  60 :   0.2500 0.0000 0.2222  plane waves:    4261
[...]
 k-point 151 :   0.3750 0.3750 0.4444  plane waves:    4255
 k-point 152 :   0.5000 0.3750 0.4444  plane waves:    4256
 k-point 153 :  -0.3750 0.3750 0.4444  plane waves:    4255
 k-point 154 :  -0.2500 0.3750 0.4444  plane waves:    4260
 k-point 155 :  -0.1250 0.3750 0.4444  plane waves:    4266
 k-point 156 :   0.5000 0.5000 0.4444  plane waves:    4242
 k-point 157 :  -0.3750 0.5000 0.4444  plane waves:    4251
 k-point 158 :  -0.2500 0.5000 0.4444  plane waves:    4251
 k-point 159 :  -0.1250 0.5000 0.4444  plane waves:    4258
 k-point 160 :  -0.3750-0.3750 0.4444  plane waves:    4249
 k-point 161 :  -0.2500-0.3750 0.4444  plane waves:    4252
 k-point 162 :  -0.1250-0.3750 0.4444  plane waves:    4257
 k-point 163 :  -0.2500-0.2500 0.4444  plane waves:    4262
 k-point 164 :  -0.1250-0.2500 0.4444  plane waves:    4260
 k-point 165 :  -0.1250-0.1250 0.4444  plane waves:    4248

 maximum and minimum number of plane-waves per node :      2156     2100

 maximum number of plane-waves:      4284
 maximum index in each direction:
   IXMAX=   11   IYMAX=   11   IZMAX=   11
   IXMIN=  -11   IYMIN=  -11   IZMIN=  -11

 parallel 3D FFT for wavefunctions:
    minimum data exchange during FFTs selected (reduces bandwidth)
 parallel 3D FFT for charge:
    minimum data exchange during FFTs selected (reduces bandwidth)

 Broyden mixing: mesh for mixing (old mesh)
   NGX = 23   NGY = 23   NGZ = 23
  (NGX  = 96   NGY  = 96   NGZ  = 96)
  gives a total of  12167 points

 initial charge density was supplied:
 charge density of overlapping atoms calculated
 number of electron     106.0000000 magnetization
 keeping initial charge density in first step

 Maximum index for augmentation-charges        24545 (set IRDMAX)

 First call to EWALD:  gamma=   0.352
 Maximum number of real-space cells 3x 3x 3
 Maximum number of reciprocal cells 3x 3x 3

--------------------------------------- Iteration      1(   1)  ---------------------------------------

 eigenvalue-minimisations  : 25272
 total energy-change (2. order) : 0.1536004E+05  (-0.9608641E+04)
 number of electron     106.0000000 magnetization
 augmentation part      106.0000000 magnetization

 Free energy of the ion-electron system (eV)
  alpha Z        PSCENC =       722.32689327
  Ewald energy   TEWEN  =      7180.08872631
  -Hartree energ DENC   =     -2922.28642177
  -exchange      EXHF   =         0.00000000
  -V(xc)+E(xc)   XCENC  =       461.62602782
  PAW double counting   =      9333.50011946    -9270.82734050
  entropy T*S    EENTRO =        -0.00033257
  eigenvalues    EBANDS =     -1872.68788918
  atomic energy  EATOM  =     11728.30056431
  free energy    TOTEN  =     15360.04034715 eV

  energy without entropy =    15360.04067972  energy(sigma->0) =    15360.04051344

[...]

 eigenvalue-minimisations  : 24456
 total energy-change (2. order) :-0.1467705E+04  (-0.1448062E+04)
 number of electron     106.0000000 magnetization
 augmentation part      106.0000000 magnetization

[...]

 eigenvalue-minimisations  :     0
 total energy-change (2. order) :-0.4470348E-06  ( 0.1921513E-06)
 number of electron     106.0000001 magnetization
 augmentation part       25.7535692 magnetization

[...]

 eigenvalue-minimisations  :     0
 total energy-change (2. order) : 0.1788139E-06  ( 0.9245142E-08)
 number of electron     106.0000001 magnetization
 augmentation part       25.7535553 magnetization

[...]

 eigenvalue-minimisations  :     0
 total energy-change (2. order) :-0.3576279E-06  ( 0.2828584E-11)
 number of electron     106.0000001 magnetization
 augmentation part       25.7535277 magnetization

[...]

 eigenvalue-minimisations  :     0
 total energy-change (2. order) :-0.2682209E-06  (-0.2786499E-12)
 number of electron     106.0000001 magnetization
 augmentation part       25.7535277 magnetization

[...]

 eigenvalue-minimisations  :     0
 total energy-change (2. order) : 0.1192093E-06  (-0.2567955E-12)
 number of electron     106.0000001 magnetization
 augmentation part       25.7535277 magnetization

[...]

--------------------------------------- Iteration      1(  83)  ---------------------------------------

 eigenvalue-minimisations  :     0
 total energy-change (2. order) : 0.0000000E+00  ( 0.9759092E-12)
 number of electron     106.0000001 magnetization
 augmentation part       25.7535271 magnetization

 Free energy of the ion-electron system (eV)
  alpha Z        PSCENC =       722.32689327
  Ewald energy   TEWEN  =      7180.08872631
  -Hartree energ DENC   =     -5020.82792733
  -exchange      EXHF   =         0.00000000
  -V(xc)+E(xc)   XCENC  =       558.96630888
  PAW double counting   = 237980911.53813481******************
  entropy T*S    EENTRO =        -0.00189510
  eigenvalues    EBANDS =     -1083.95548102
  atomic energy  EATOM  =     11728.30056431
  free energy    TOTEN  =     14453.88497895 eV

  energy without entropy =    14453.88687405  energy(sigma->0) =    14453.88592650

  average scaling for gradient   1.3430

 average (electrostatic) potential at core
  the test charge radii are     0.7672  1.0818  0.9892
  (the norm of the test charge is              1.0000)
       1 -26.3701       2 -26.3701       3 -77.6516       4 -92.2368       5 -77.6516
       6 -92.2368       7 -92.2348       8 -92.2348       9 -95.2148      10 -95.2149
      11 -95.2160      12 -95.2155

 E-fermi :   8.3017     XC(G=0): -12.2684     alpha+bet :-23.9553

 Fermi energy:         8.3016546235

 k-point     1 :       0.0000    0.0000    0.0000
  band No.  band energies     occupation
      1     -53.8305      2.00000
      2     -53.8302      2.00000
      3     -31.8209      2.00000
      4     -31.8159      2.00000
      5     -31.8116      2.00000
      6     -31.8065      2.00000
      7     -27.4404      2.00000
      8     -27.4402      2.00000
      9     -27.4264      2.00000
     10     -27.4262      2.00000
     11     -27.3980      2.00000
     12     -27.3730      2.00000
     13     -20.0780      2.00000
     14     -19.8714      2.00000
     15     -19.8695      2.00000
     16     -19.7306      2.00000
     17     -19.2998      2.00000
     18     -19.2765      2.00000
     19     -19.2749      2.00000
     20     -19.1667      2.00000
     21     -19.0075      2.00000
     22     -18.9634      2.00000
     23     -18.9610      2.00000
     24     -18.8916      2.00000
     25      -3.4556      2.00000
     26      -0.7661      2.00000
     27      -0.7202      2.00000
     28      -0.7200      2.00000
     29       0.3749      2.00000
     30       0.7777      2.00000
     31       0.7782      2.00000
     32       1.5102      2.00000
     33       1.5576      2.00000
     34       1.8727      2.00000
     35       1.9920      2.00000
     36       2.0455      2.00000
     37       2.0456      2.00000
     38       2.9848      2.00000
     39       2.9854      2.00000
     40       3.0304      2.00000
     41       3.0318      2.00000
     42       3.0758      2.00000
     43       3.4239      2.00000
     44       3.9561      2.00000
     45       4.1352      2.00000
     46       4.1389      2.00000
     47       5.8351      2.00000
     48       7.2416      2.00000
     49       8.0895      2.00000
     50       8.0896      2.00000
     51       8.3032      0.91404
     52       8.5360      0.00000
     53       9.2135      0.00000
     54       9.2941      0.00000
     55       9.4234      0.00000
     56       9.4239      0.00000
     57       9.5193      0.00000
     58       9.6868      0.00000
     59       9.6869      0.00000
     60      11.3722      0.00000
     61      11.3723      0.00000
     62      12.3111      0.00000
     63      13.0695      0.00000
     64      16.7197      0.00000
     65      16.7432      0.00000
     66      17.0539      0.00000

[...]

 k-point   165 :      -0.1250   -0.1250    0.4444
  band No.  band energies     occupation
      1     -53.8306      2.00000
      2     -53.8304      2.00000
      3     -31.8179      2.00000
      4     -31.8159      2.00000
      5     -31.8118      2.00000
      6     -31.8088      2.00000
      7     -27.4403      2.00000
      8     -27.4329      2.00000
      9     -27.4236      2.00000
     10     -27.4233      2.00000
     11     -27.3808      2.00000
     12     -27.3693      2.00000
     13     -19.9340      2.00000
     14     -19.8036      2.00000
     15     -19.7805      2.00000
     16     -19.5978      2.00000
     17     -19.5106      2.00000
     18     -19.3958      2.00000
     19     -19.3717      2.00000
     20     -19.2918      2.00000
     21     -18.9943      2.00000
     22     -18.9817      2.00000
     23     -18.9636      2.00000
     24     -18.9273      2.00000
     25      -2.4771      2.00000
     26      -1.0166      2.00000
     27      -0.3537      2.00000
     28       0.0553      2.00000
     29       0.7379      2.00000
     30       0.9086      2.00000
     31       0.9928      2.00000
     32       1.0316      2.00000
     33       1.5299      2.00000
     34       1.7160      2.00000
     35       1.9534      2.00000
     36       1.9656      2.00000
     37       2.0530      2.00000
     38       2.6592      2.00000
     39       2.6845      2.00000
     40       2.7327      2.00000
     41       2.7840      2.00000
     42       2.8250      2.00000
     43       2.8781      2.00000
     44       3.0355      2.00000
     45       4.5176      2.00000
     46       4.7313      2.00000
     47       6.6630      2.00000
     48       6.8036      2.00000
     49       7.0601      2.00000
     50       7.7799      2.00000
     51       7.8282      2.00000
     52       7.9885      2.00000
     53       8.2838      1.79289
     54       8.6287      0.00000
     55       8.6675      0.00000
     56       8.9496      0.00000
     57       9.4287      0.00000
     58      10.2078      0.00000
     59      10.7980      0.00000
     60      11.1712      0.00000
     61      11.6987      0.00000
     62      14.2141      0.00000
     63      15.1282      0.00000
     64      15.2121      0.00000
     65      16.9861      0.00000
     66      17.6217      0.00000

 soft charge-density along one line, spin component           1
         0         1         2         3         4         5         6         7         8         9
 total charge-density along one line

------------------------ aborting loop because EDIFF is reached ----------------------------------------

  FREE ENERGIE OF THE ION-ELECTRON SYSTEM (eV)
  free  energy   TOTEN  =     14453.88497895 eV

  energy  without entropy=    14453.88687405  energy(sigma->0) =    14453.88592650

 writing wavefunctions