 vasp.6.2.0 18Jan21 (build Jan 05 2022 15:41:44) complex

 executed on             LinuxIFC date 2025.05.07  21:31:00

 INCAR:
   SYSTEM = routine with relax: pwdword
   ICHARG = 2
   NPAR = 6
   KPAR = 2
   NCORE = 2
   ADDGRID = T
   PREC = Acc
   ENCUT = 600
   METAGGA = R2SCAN
   LASPH = .TRUE.
   LMIXTAU = .FALSE.
   ALGO = A
   EDIFF = 1E-9
   NELM = 100
   NELMIN = 6
   IALGO = 38
   LREAL = F
   NSW = 0
   ISIF = -1
   ISMEAR = 0
   SIGMA = 0.02

 POTCAR:    PAW_PBE B 06Sep2000
 POTCAR:    PAW_PBE Si 05Jan2001
|           W    W    AA    RRRRR   N    N  II  N    N   GGGG   !!!           |
|           W    W   A  A   R    R  NN   N  II  NN   N  G    G  !!!           |
|           W    W  A    A  R    R  N N  N  II  N N  N  G       !!!           |
|           W WW W  AAAAAA  RRRRR   N  N N  II  N  N N  G  GGG   !            |
|           WW  WW  A    A  R   R   N   NN  II  N   NN  G    G                |
|           W    W  A    A  R    R  N    N  II  N    N   GGGG   !!!           |
|     For optimal performance we recommend to set                             |
|       NCORE = 2 up to number-of-cores-per-socket                            |
|     This setting can greatly improve the performance of VASP for DFT.       |
|     The default, NCORE=1 might be grossly inefficient on modern             |
|     multi-core architectures or massively parallel machines. Do your        |
|     Unfortunately you need to use the default for GW and RPA                |
|     calculations (for HF NCORE is supported but not extensively tested      |
|     yet).                                                                   |

 POTCAR:    PAW_PBE B 06Sep2000
   VRHFIN =B: s2p1

   TITEL  = PAW_PBE B 06Sep2000
   POMASS =   10.811; ZVAL   =    3.000    mass and valenz
   ENMAX  =  318.614; ENMIN  =  238.960 eV

 POTCAR:    PAW_PBE Si 05Jan2001
   VRHFIN =Si: s2p2

   TITEL  = PAW_PBE Si 05Jan2001
   POMASS =   28.085; ZVAL   =    4.000    mass and valenz
   ENMAX  =  245.345; ENMIN  =  184.009 eV

  PAW_PBE B 06Sep2000                   :
  PAW_PBE Si 05Jan2001                  :

 POSCAR: EA263
  positions in direct lattice

 METAGGA = R2SCA    LMAXTAU =  6    LMIXTAU =  F

 ion  position               nearest neighbor table
   1  0.667  0.333  0.518-   3 1.99   4 2.06   4 2.06   4 2.06
   2  0.333  0.667  0.018-   4 1.99   3 2.06   3 2.06   3 2.06
   3  0.667  0.333  0.857-   1 1.99   2 2.06   2 2.06   2 2.06
   4  0.333  0.667  0.357-   2 1.99   1 2.06   1 2.06   1 2.06

  LATTYP: Found a hexagonal cell.
 ALAT       =     3.1751737008
 C/A-ratio  =     1.8458609047

  Lattice vectors:

 A1 = (   1.5875870000,  -2.7497810000,   0.0000000000)
 A2 = (   1.5875870000,   2.7497810000,   0.0000000000)
 A3 = (   0.0000000000,   0.0000000000,   5.8609290000)

Analysis of symmetry for initial positions (statically):
 Subroutine PRICEL returns:
 Original cell was already a primitive cell.

 Routine SETGRP: Setting up the symmetry group for a
 hexagonal supercell.

 Subroutine GETGRP returns: Found 12 space group operations
 (whereof  6 operations were pure point group operations)
 out of a pool of 24 trial point group operations.

The static configuration has the point symmetry C_3v.
 The point group associated with its full space group is C_6v.

Analysis of symmetry for dynamics (positions and initial velocities):
 Subroutine PRICEL returns:
 Original cell was already a primitive cell.

 Routine SETGRP: Setting up the symmetry group for a
 hexagonal supercell.

 Subroutine GETGRP returns: Found 12 space group operations
 (whereof  6 operations were pure point group operations)
 out of a pool of 24 trial point group operations.

The dynamic configuration has the point symmetry C_3v.
 The point group associated with its full space group is C_6v.

 Subroutine INISYM returns: Found 12 space group operations
 (whereof  6 operations are pure point group operations),
 and found     1 'primitive' translations

                                     Primitive cell

  volume of cell :      51.1720

  direct lattice vectors                    reciprocal lattice vectors
     1.587587000 -2.749781000  0.000000000     0.314943370 -0.181832662  0.000000000
     1.587587000  2.749781000  0.000000000     0.314943370  0.181832662  0.000000000
     0.000000000  0.000000000  5.860929000     0.000000000  0.000000000  0.170621415

  length of vectors
     3.175173701  3.175173701  5.860929000     0.363665290  0.363665290  0.170621415

  position of ions in fractional coordinates (direct lattice)
     0.666667000  0.333333000  0.518094000
     0.333333000  0.666667000  0.018094000
     0.666667000  0.333333000  0.856905000
     0.333333000  0.666667000  0.356905000

  ion indices of the primitive-cell ions
   primitive index   ion index
                 1           1
                 2           2
                 3           3
                 4           4

 KPOINTS: EA

Automatic generation of k-mesh.
 Grid dimensions read from file:
 generate k-points for:   13   13    6

 Generating k-lattice:

  Cartesian coordinates                     Fractional coordinates (reciprocal lattice)
     0.024226413 -0.013987128  0.000000000     0.076923077  0.000000000  0.000000000
     0.024226413  0.013987128  0.000000000     0.000000000  0.076923077  0.000000000
     0.000000000  0.000000000  0.028436903     0.000000000  0.000000000  0.166666667

  Length of vectors
     0.027974253  0.027974253  0.028436903

  Shift w.r.t. Gamma in fractional coordinates (k-lattice)
     0.000000000  0.000000000  0.000000000

 Subroutine IBZKPT returns following result:

 Found     84 irreducible k-points:

 Following reciprocal coordinates:
            Coordinates               Weight
  0.000000  0.000000  0.000000      1.000000
  0.076923 -0.000000  0.000000      6.000000
  0.153846 -0.000000  0.000000      6.000000
  0.230769  0.000000  0.000000      6.000000
  0.307692 -0.000000  0.000000      6.000000
  0.384615 -0.000000  0.000000      6.000000
  0.461538 -0.000000  0.000000      6.000000
  0.076923  0.076923  0.000000      6.000000
  0.153846  0.076923  0.000000     12.000000
  0.230769  0.076923  0.000000     12.000000
  0.307692  0.076923  0.000000     12.000000
  0.384615  0.076923  0.000000     12.000000
  0.461538  0.076923  0.000000      6.000000
  0.153846  0.153846  0.000000      6.000000
  0.230769  0.153846  0.000000     12.000000
  0.307692  0.153846  0.000000     12.000000
  0.384615  0.153846  0.000000     12.000000
  0.230769  0.230769  0.000000      6.000000
  0.307692  0.230769  0.000000     12.000000
  0.384615  0.230769  0.000000      6.000000
  0.307692  0.307692  0.000000      6.000000
  0.000000  0.000000  0.166667      2.000000
  0.076923 -0.000000  0.166667     12.000000
  0.153846 -0.000000  0.166667     12.000000
  0.230769  0.000000  0.166667     12.000000
  0.307692 -0.000000  0.166667     12.000000
  0.384615 -0.000000  0.166667     12.000000
  0.461538 -0.000000  0.166667     12.000000
  0.076923  0.076923  0.166667     12.000000
  0.153846  0.076923  0.166667     24.000000
  0.230769  0.076923  0.166667     24.000000
  0.307692  0.076923  0.166667     24.000000
  0.384615  0.076923  0.166667     24.000000
  0.461538  0.076923  0.166667     12.000000
  0.153846  0.153846  0.166667     12.000000
  0.230769  0.153846  0.166667     24.000000
  0.307692  0.153846  0.166667     24.000000
  0.384615  0.153846  0.166667     24.000000
  0.230769  0.230769  0.166667     12.000000
  0.307692  0.230769  0.166667     24.000000
  0.384615  0.230769  0.166667     12.000000
  0.307692  0.307692  0.166667     12.000000
  0.000000  0.000000  0.333333      2.000000
  0.076923 -0.000000  0.333333     12.000000
  0.153846 -0.000000  0.333333     12.000000
  0.230769  0.000000  0.333333     12.000000
  0.307692 -0.000000  0.333333     12.000000
  0.384615 -0.000000  0.333333     12.000000
  0.461538 -0.000000  0.333333     12.000000
  0.076923  0.076923  0.333333     12.000000
  0.153846  0.076923  0.333333     24.000000
  0.230769  0.076923  0.333333     24.000000
  0.307692  0.076923  0.333333     24.000000
  0.384615  0.076923  0.333333     24.000000
  0.461538  0.076923  0.333333     12.000000
  0.153846  0.153846  0.333333     12.000000
  0.230769  0.153846  0.333333     24.000000
  0.307692  0.153846  0.333333     24.000000
  0.384615  0.153846  0.333333     24.000000
  0.230769  0.230769  0.333333     12.000000
[...]
  0.461538 -0.000000  0.500000      6.000000
  0.076923  0.076923  0.500000      6.000000
  0.153846  0.076923  0.500000     12.000000
  0.230769  0.076923  0.500000     12.000000
  0.307692  0.076923  0.500000     12.000000
  0.384615  0.076923  0.500000     12.000000
  0.461538  0.076923  0.500000      6.000000
  0.153846  0.153846  0.500000      6.000000
  0.230769  0.153846  0.500000     12.000000
  0.307692  0.153846  0.500000     12.000000
  0.384615  0.153846  0.500000     12.000000
  0.230769  0.230769  0.500000      6.000000
  0.307692  0.230769  0.500000     12.000000
  0.384615  0.230769  0.500000      6.000000
  0.307692  0.307692  0.500000      6.000000

 Following cartesian coordinates:
            Coordinates               Weight
  0.000000  0.000000  0.000000      1.000000
  0.024226 -0.013987  0.000000      6.000000
  0.048453 -0.027974  0.000000      6.000000
  0.072679 -0.041961  0.000000      6.000000
  0.096906 -0.055949  0.000000      6.000000
  0.121132 -0.069936  0.000000      6.000000
  0.145358 -0.083923  0.000000      6.000000
  0.048453  0.000000  0.000000      6.000000
  0.072679 -0.013987  0.000000     12.000000
  0.096906 -0.027974  0.000000     12.000000
  0.121132 -0.041961  0.000000     12.000000
  0.145358 -0.055949  0.000000     12.000000
  0.169585 -0.069936  0.000000      6.000000
  0.096906  0.000000  0.000000      6.000000
  0.121132 -0.013987  0.000000     12.000000
  0.145358 -0.027974  0.000000     12.000000
  0.169585 -0.041961  0.000000     12.000000
  0.145358  0.000000  0.000000      6.000000
  0.169585 -0.013987  0.000000     12.000000
  0.193811 -0.027974  0.000000      6.000000
  0.193811  0.000000  0.000000      6.000000
  0.000000  0.000000  0.028437      2.000000
  0.024226 -0.013987  0.028437     12.000000
  0.048453 -0.027974  0.028437     12.000000
  0.072679 -0.041961  0.028437     12.000000
  0.096906 -0.055949  0.028437     12.000000
  0.121132 -0.069936  0.028437     12.000000
  0.145358 -0.083923  0.028437     12.000000
  0.048453  0.000000  0.028437     12.000000
  0.072679 -0.013987  0.028437     24.000000
  0.096906 -0.027974  0.028437     24.000000
  0.121132 -0.041961  0.028437     24.000000
  0.145358 -0.055949  0.028437     24.000000
  0.169585 -0.069936  0.028437     12.000000
  0.096906  0.000000  0.028437     12.000000
  0.121132 -0.013987  0.028437     24.000000
  0.145358 -0.027974  0.028437     24.000000
  0.169585 -0.041961  0.028437     24.000000
  0.145358  0.000000  0.028437     12.000000
  0.169585 -0.013987  0.028437     24.000000
  0.193811 -0.027974  0.028437     12.000000
  0.193811  0.000000  0.028437     12.000000
  0.000000  0.000000  0.056874      2.000000
  0.024226 -0.013987  0.056874     12.000000
[...]
   0.16958489 -0.04196138  0.00000000       0.012
   0.14535848  0.00000000  0.00000000       0.006
   0.16958489 -0.01398713  0.00000000       0.012
   0.19381130 -0.02797426  0.00000000       0.006
   0.19381130  0.00000000  0.00000000       0.006
   0.00000000  0.00000000  0.02843690       0.002
   0.02422641 -0.01398713  0.02843690       0.012
   0.04845283 -0.02797426  0.02843690       0.012
   0.07267924 -0.04196138  0.02843690       0.012
   0.09690565 -0.05594851  0.02843690       0.012
   0.12113207 -0.06993564  0.02843690       0.012
   0.14535848 -0.08392277  0.02843690       0.012
   0.04845283  0.00000000  0.02843690       0.012
   0.07267924 -0.01398713  0.02843690       0.024
   0.09690565 -0.02797426  0.02843690       0.024
   0.12113207 -0.04196138  0.02843690       0.024
   0.14535848 -0.05594851  0.02843690       0.024
   0.16958489 -0.06993564  0.02843690       0.012
   0.09690565  0.00000000  0.02843690       0.012
   0.12113207 -0.01398713  0.02843690       0.024
   0.14535848 -0.02797426  0.02843690       0.024
   0.16958489 -0.04196138  0.02843690       0.024
   0.14535848  0.00000000  0.02843690       0.012
   0.16958489 -0.01398713  0.02843690       0.024
   0.19381130 -0.02797426  0.02843690       0.012
   0.19381130  0.00000000  0.02843690       0.012
   0.00000000  0.00000000  0.05687381       0.002
   0.02422641 -0.01398713  0.05687381       0.012
   0.04845283 -0.02797426  0.05687381       0.012
   0.07267924 -0.04196138  0.05687381       0.012
   0.09690565 -0.05594851  0.05687381       0.012
   0.12113207 -0.06993564  0.05687381       0.012
   0.14535848 -0.08392277  0.05687381       0.012
   0.04845283  0.00000000  0.05687381       0.012
   0.07267924 -0.01398713  0.05687381       0.024
   0.09690565 -0.02797426  0.05687381       0.024
   0.12113207 -0.04196138  0.05687381       0.024
   0.14535848 -0.05594851  0.05687381       0.024
   0.16958489 -0.06993564  0.05687381       0.012
   0.09690565  0.00000000  0.05687381       0.012
   0.12113207 -0.01398713  0.05687381       0.024
   0.14535848 -0.02797426  0.05687381       0.024
   0.16958489 -0.04196138  0.05687381       0.024
   0.14535848  0.00000000  0.05687381       0.012
[...]
   0.14535848 -0.08392277  0.08531071       0.006
   0.04845283  0.00000000  0.08531071       0.006
   0.07267924 -0.01398713  0.08531071       0.012
   0.09690565 -0.02797426  0.08531071       0.012
   0.12113207 -0.04196138  0.08531071       0.012
   0.14535848 -0.05594851  0.08531071       0.012
   0.16958489 -0.06993564  0.08531071       0.006
   0.09690565  0.00000000  0.08531071       0.006
   0.12113207 -0.01398713  0.08531071       0.012
   0.14535848 -0.02797426  0.08531071       0.012
   0.16958489 -0.04196138  0.08531071       0.012
   0.14535848  0.00000000  0.08531071       0.006
   0.16958489 -0.01398713  0.08531071       0.012
   0.19381130 -0.02797426  0.08531071       0.006
   0.19381130  0.00000000  0.08531071       0.006

 k-points in reciprocal lattice and weights: EA
   0.00000000  0.00000000  0.00000000       0.001
   0.07692308 -0.00000000  0.00000000       0.006
   0.15384615 -0.00000000  0.00000000       0.006
   0.23076923  0.00000000  0.00000000       0.006
   0.30769231 -0.00000000  0.00000000       0.006
   0.38461538 -0.00000000  0.00000000       0.006
   0.46153846 -0.00000000  0.00000000       0.006
   0.07692308  0.07692308  0.00000000       0.006
   0.15384615  0.07692308  0.00000000       0.012
   0.23076923  0.07692308  0.00000000       0.012
   0.30769231  0.07692308  0.00000000       0.012
   0.38461538  0.07692308  0.00000000       0.012
   0.46153846  0.07692308  0.00000000       0.006
   0.15384615  0.15384615  0.00000000       0.006
   0.23076923  0.15384615  0.00000000       0.012
   0.30769231  0.15384615  0.00000000       0.012
   0.38461538  0.15384615  0.00000000       0.012
   0.23076923  0.23076923  0.00000000       0.006
   0.30769231  0.23076923  0.00000000       0.012
   0.38461538  0.23076923  0.00000000       0.006
   0.30769231  0.30769231  0.00000000       0.006
   0.00000000  0.00000000  0.16666667       0.002
   0.07692308 -0.00000000  0.16666667       0.012
   0.15384615 -0.00000000  0.16666667       0.012
   0.23076923  0.00000000  0.16666667       0.012
   0.30769231 -0.00000000  0.16666667       0.012
   0.38461538 -0.00000000  0.16666667       0.012
   0.46153846 -0.00000000  0.16666667       0.012
   0.07692308  0.07692308  0.16666667       0.012
   0.15384615  0.07692308  0.16666667       0.024
   0.23076923  0.07692308  0.16666667       0.024
   0.30769231  0.07692308  0.16666667       0.024
   0.38461538  0.07692308  0.16666667       0.024
   0.46153846  0.07692308  0.16666667       0.012
   0.15384615  0.15384615  0.16666667       0.012
   0.23076923  0.15384615  0.16666667       0.024
   0.30769231  0.15384615  0.16666667       0.024
   0.38461538  0.15384615  0.16666667       0.024
   0.23076923  0.23076923  0.16666667       0.012
   0.30769231  0.23076923  0.16666667       0.024
   0.38461538  0.23076923  0.16666667       0.012
   0.30769231  0.30769231  0.16666667       0.012
   0.00000000  0.00000000  0.33333333       0.002
   0.07692308 -0.00000000  0.33333333       0.012
   0.15384615 -0.00000000  0.33333333       0.012
   0.23076923  0.00000000  0.33333333       0.012
   0.30769231 -0.00000000  0.33333333       0.012
   0.38461538 -0.00000000  0.33333333       0.012
   0.46153846 -0.00000000  0.33333333       0.012
   0.07692308  0.07692308  0.33333333       0.012
   0.15384615  0.07692308  0.33333333       0.024
   0.23076923  0.07692308  0.33333333       0.024
   0.30769231  0.07692308  0.33333333       0.024
   0.38461538  0.07692308  0.33333333       0.024
   0.46153846  0.07692308  0.33333333       0.012
   0.15384615  0.15384615  0.33333333       0.012
   0.23076923  0.15384615  0.33333333       0.024
   0.30769231  0.15384615  0.33333333       0.024
   0.38461538  0.15384615  0.33333333       0.024
   0.23076923  0.23076923  0.33333333       0.012
[...]
   0.46153846 -0.00000000  0.50000000       0.006
   0.07692308  0.07692308  0.50000000       0.006
   0.15384615  0.07692308  0.50000000       0.012
   0.23076923  0.07692308  0.50000000       0.012
   0.30769231  0.07692308  0.50000000       0.012
   0.38461538  0.07692308  0.50000000       0.012
   0.46153846  0.07692308  0.50000000       0.006
   0.15384615  0.15384615  0.50000000       0.006
   0.23076923  0.15384615  0.50000000       0.012
   0.30769231  0.15384615  0.50000000       0.012
   0.38461538  0.15384615  0.50000000       0.012
   0.23076923  0.23076923  0.50000000       0.006
   0.30769231  0.23076923  0.50000000       0.012
   0.38461538  0.23076923  0.50000000       0.006
   0.30769231  0.30769231  0.50000000       0.006

 position of ions in fractional coordinates (direct lattice)
   0.66666700  0.33333300  0.51809400
   0.33333300  0.66666700  0.01809400
   0.66666700  0.33333300  0.85690500
   0.33333300  0.66666700  0.35690500

 position of ions in cartesian coordinates  (Angst):
   1.58758700 -0.91659550  3.03651215
   1.58758700  0.91659550  0.10604765
   1.58758700 -0.91659550  5.02225936
   1.58758700  0.91659550  2.09179486

 k-point   1 :   0.0000 0.0000 0.0000  plane waves:    1727
 k-point   2 :   0.0769-0.0000 0.0000  plane waves:    1713
 k-point   3 :   0.1538-0.0000 0.0000  plane waves:    1719
 k-point   4 :   0.2308 0.0000 0.0000  plane waves:    1713
 k-point   5 :   0.3077-0.0000 0.0000  plane waves:    1721
 k-point   6 :   0.3846-0.0000 0.0000  plane waves:    1717
 k-point   7 :   0.4615-0.0000 0.0000  plane waves:    1717
 k-point   8 :   0.0769 0.0769 0.0000  plane waves:    1721
 k-point   9 :   0.1538 0.0769 0.0000  plane waves:    1720
 k-point  10 :   0.2308 0.0769 0.0000  plane waves:    1713
 k-point  11 :   0.3077 0.0769 0.0000  plane waves:    1717
 k-point  12 :   0.3846 0.0769 0.0000  plane waves:    1710
 k-point  13 :   0.4615 0.0769 0.0000  plane waves:    1708
 k-point  14 :   0.1538 0.1538 0.0000  plane waves:    1713
 k-point  15 :   0.2308 0.1538 0.0000  plane waves:    1712
 k-point  16 :   0.3077 0.1538 0.0000  plane waves:    1704
 k-point  17 :   0.3846 0.1538 0.0000  plane waves:    1699
 k-point  18 :   0.2308 0.2308 0.0000  plane waves:    1704
 k-point  19 :   0.3077 0.2308 0.0000  plane waves:    1690
 k-point  20 :   0.3846 0.2308 0.0000  plane waves:    1692
 k-point  21 :   0.3077 0.3077 0.0000  plane waves:    1686
 k-point  22 :   0.0000 0.0000 0.1667  plane waves:    1697
 k-point  23 :   0.0769-0.0000 0.1667  plane waves:    1717
 k-point  24 :   0.1538-0.0000 0.1667  plane waves:    1714
 k-point  25 :   0.2308 0.0000 0.1667  plane waves:    1711
 k-point  26 :   0.3077-0.0000 0.1667  plane waves:    1716
 k-point  27 :   0.3846-0.0000 0.1667  plane waves:    1708
 k-point  28 :   0.4615-0.0000 0.1667  plane waves:    1705
 k-point  29 :   0.0769 0.0769 0.1667  plane waves:    1719
 k-point  30 :   0.1538 0.0769 0.1667  plane waves:    1715
 k-point  31 :   0.2308 0.0769 0.1667  plane waves:    1713
 k-point  32 :   0.3077 0.0769 0.1667  plane waves:    1711
 k-point  33 :   0.3846 0.0769 0.1667  plane waves:    1705
 k-point  34 :   0.4615 0.0769 0.1667  plane waves:    1703
 k-point  35 :   0.1538 0.1538 0.1667  plane waves:    1707
 k-point  36 :   0.2308 0.1538 0.1667  plane waves:    1709
 k-point  37 :   0.3077 0.1538 0.1667  plane waves:    1705
 k-point  38 :   0.3846 0.1538 0.1667  plane waves:    1702
 k-point  39 :   0.2308 0.2308 0.1667  plane waves:    1702
 k-point  40 :   0.3077 0.2308 0.1667  plane waves:    1702
 k-point  41 :   0.3846 0.2308 0.1667  plane waves:    1697
 k-point  42 :   0.3077 0.3077 0.1667  plane waves:    1688
 k-point  43 :   0.0000 0.0000 0.3333  plane waves:    1710
 k-point  44 :   0.0769-0.0000 0.3333  plane waves:    1705
 k-point  45 :   0.1538-0.0000 0.3333  plane waves:    1718
 k-point  46 :   0.2308 0.0000 0.3333  plane waves:    1716
 k-point  47 :   0.3077-0.0000 0.3333  plane waves:    1709
 k-point  48 :   0.3846-0.0000 0.3333  plane waves:    1707
 k-point  49 :   0.4615-0.0000 0.3333  plane waves:    1711
 k-point  50 :   0.0769 0.0769 0.3333  plane waves:    1719
 k-point  51 :   0.1538 0.0769 0.3333  plane waves:    1714
 k-point  52 :   0.2308 0.0769 0.3333  plane waves:    1710
 k-point  53 :   0.3077 0.0769 0.3333  plane waves:    1706
 k-point  54 :   0.3846 0.0769 0.3333  plane waves:    1707
 k-point  55 :   0.4615 0.0769 0.3333  plane waves:    1710
 k-point  56 :   0.1538 0.1538 0.3333  plane waves:    1712
 k-point  57 :   0.2308 0.1538 0.3333  plane waves:    1704
 k-point  58 :   0.3077 0.1538 0.3333  plane waves:    1706
 k-point  59 :   0.3846 0.1538 0.3333  plane waves:    1698
 k-point  60 :   0.2308 0.2308 0.3333  plane waves:    1707
[...]
 k-point  70 :   0.4615-0.0000 0.5000  plane waves:    1710
 k-point  71 :   0.0769 0.0769 0.5000  plane waves:    1716
 k-point  72 :   0.1538 0.0769 0.5000  plane waves:    1712
 k-point  73 :   0.2308 0.0769 0.5000  plane waves:    1714
 k-point  74 :   0.3077 0.0769 0.5000  plane waves:    1700
 k-point  75 :   0.3846 0.0769 0.5000  plane waves:    1704
 k-point  76 :   0.4615 0.0769 0.5000  plane waves:    1712
 k-point  77 :   0.1538 0.1538 0.5000  plane waves:    1718
 k-point  78 :   0.2308 0.1538 0.5000  plane waves:    1700
 k-point  79 :   0.3077 0.1538 0.5000  plane waves:    1702
 k-point  80 :   0.3846 0.1538 0.5000  plane waves:    1710
 k-point  81 :   0.2308 0.2308 0.5000  plane waves:    1712
 k-point  82 :   0.3077 0.2308 0.5000  plane waves:    1710
 k-point  83 :   0.3846 0.2308 0.5000  plane waves:    1702
 k-point  84 :   0.3077 0.3077 0.5000  plane waves:    1696

 maximum and minimum number of plane-waves per node :       870      841

 maximum number of plane-waves:      1727
 maximum index in each direction:
   IXMAX=    6   IYMAX=    6   IZMAX=   11
   IXMIN=   -6   IYMIN=   -6   IZMIN=  -12

 parallel 3D FFT for wavefunctions:
    minimum data exchange during FFTs selected (reduces bandwidth)
 parallel 3D FFT for charge:
    minimum data exchange during FFTs selected (reduces bandwidth)

 Broyden mixing: mesh for mixing (old mesh)
   NGX = 13   NGY = 13   NGZ = 23
  (NGX  = 56   NGY  = 56   NGZ  = 96)
  gives a total of   3887 points

 initial charge density was supplied:
 charge density of overlapping atoms calculated
 number of electron      14.0000000 magnetization
 keeping initial charge density in first step

 Maximum index for augmentation-charges        16406 (set IRDMAX)

 First call to EWALD:  gamma=   0.477
 Maximum number of real-space cells 4x 4x 2
 Maximum number of reciprocal cells 2x 2x 4

--------------------------------------- Iteration      1(   1)  ---------------------------------------

 eigenvalue-minimisations  :  2016
 total energy-change (2. order) : 0.1110123E+02  (-0.7661964E+03)
 number of electron      14.0000000 magnetization
 augmentation part       14.0000000 magnetization

 Free energy of the ion-electron system (eV)
  alpha Z        PSCENC =        17.15254597
  Ewald energy   TEWEN  =      -413.87025675
  -Hartree energ DENC   =       -14.54772448
  -exchange      EXHF   =         0.00000000
  -V(xc)+E(xc)   XCENC  =         7.37375063
  PAW double counting   =       250.01867259     -229.05981944
  entropy T*S    EENTRO =        -0.00024004
  eigenvalues    EBANDS =        45.56197893
  atomic energy  EATOM  =       348.47232061
  free energy    TOTEN  =        11.10122802 eV

  energy without entropy =       11.10146807  energy(sigma->0) =       11.10134805

[...]

 eigenvalue-minimisations  :  3096
 total energy-change (2. order) :-0.4423310E+02  (-0.4339760E+02)
 number of electron      14.0000000 magnetization
 augmentation part       14.0000000 magnetization

[...]

 eigenvalue-minimisations  :     0
 total energy-change (2. order) :-0.1378112E-08  (-0.1560365E-08)
 number of electron      14.0000000 magnetization
 augmentation part       -0.4830381 magnetization

[...]

--------------------------------------- Iteration      1(  20)  ---------------------------------------

 eigenvalue-minimisations  :     0
 total energy-change (2. order) : 0.1014087E-09  (-0.7355325E-09)
 number of electron      14.0000000 magnetization
 augmentation part       -0.4830383 magnetization

 Free energy of the ion-electron system (eV)
  alpha Z        PSCENC =        17.15254597
  Ewald energy   TEWEN  =      -413.87025675
  -Hartree energ DENC   =       -22.75271043
  -exchange      EXHF   =         0.00000000
  -V(xc)+E(xc)   XCENC  =         9.19006470
  PAW double counting   =      2033.73545449    -2013.10828980
  entropy T*S    EENTRO =        -0.00028686
  eigenvalues    EBANDS =        10.56150441
  atomic energy  EATOM  =       348.47232061
  free energy    TOTEN  =       -30.61965367 eV

  energy without entropy =      -30.61936681  energy(sigma->0) =      -30.61951024

  average scaling for gradient   1.8400

 average (electrostatic) potential at core
  the test charge radii are     0.7672  0.9892
  (the norm of the test charge is              1.0000)
       1 -26.9370       2 -26.9370       3 -85.6395       4 -85.6395

 E-fermi :   5.6450     XC(G=0): -11.0147     alpha+bet :-13.7120

 Fermi energy:         5.6449654102

 k-point     1 :       0.0000    0.0000    0.0000
  band No.  band energies     occupation
      1      -7.4021      2.00000
      2      -4.4924      2.00000
      3      -2.0130      2.00000
      4       5.7621      0.00000
      5       7.1757      0.00000
      6       7.1758      0.00000
      7       8.6417      0.00000
      8       8.6417      0.00000
      9      10.4784      0.00000
     10      12.3824      0.00000
     11      12.3825      0.00000
     12      13.3766      0.00000

[...]

 k-point    84 :       0.3077    0.3077    0.5000
  band No.  band energies     occupation
      1      -1.9912      2.00000
      2      -1.9912      2.00000
      3      -0.4808      2.00000
      4      -0.4808      2.00000
      5       1.8066      2.00000
      6       1.8066      2.00000
      7       4.4619      2.00000
      8       4.4619      2.00000
      9      10.4975      0.00000
     10      10.4975      0.00000
     11      11.4675      0.00000
     12      11.4675      0.00000

 soft charge-density along one line, spin component           1
         0         1         2         3         4         5         6         7         8         9
 total charge-density along one line

------------------------ aborting loop because EDIFF is reached ----------------------------------------

  FREE ENERGIE OF THE ION-ELECTRON SYSTEM (eV)
  free  energy   TOTEN  =       -30.61965367 eV

  energy  without entropy=      -30.61936681  energy(sigma->0) =      -30.61951024

 writing wavefunctions