 vasp.6.2.0 18Jan21 (build Jan 05 2022 15:41:44) complex

 executed on             LinuxIFC date 2025.05.07  21:28:49

 INCAR:
   SYSTEM = routine with relax: pwdword
   ICHARG = 2
   NPAR = 6
   KPAR = 2
   NCORE = 2
   ADDGRID = T
   PREC = Acc
   ENCUT = 600
   METAGGA = R2SCAN
   LASPH = .TRUE.
   LMIXTAU = .FALSE.
   ALGO = A
   EDIFF = 1E-9
   NELM = 100
   NELMIN = 6
   IALGO = 38
   LREAL = F
   NSW = 0
   ISIF = -1
   ISMEAR = 0
   SIGMA = 0.02

 POTCAR:    PAW_PBE Mo_sv 02Feb2006
 POTCAR:    PAW_PBE Si 05Jan2001
|           W    W    AA    RRRRR   N    N  II  N    N   GGGG   !!!           |
|           W    W   A  A   R    R  NN   N  II  NN   N  G    G  !!!           |
|           W    W  A    A  R    R  N N  N  II  N N  N  G       !!!           |
|           W WW W  AAAAAA  RRRRR   N  N N  II  N  N N  G  GGG   !            |
|           WW  WW  A    A  R   R   N   NN  II  N   NN  G    G                |
|           W    W  A    A  R    R  N    N  II  N    N   GGGG   !!!           |
|     For optimal performance we recommend to set                             |
|       NCORE = 2 up to number-of-cores-per-socket                            |
|     This setting can greatly improve the performance of VASP for DFT.       |
|     The default, NCORE=1 might be grossly inefficient on modern             |
|     multi-core architectures or massively parallel machines. Do your        |
|     Unfortunately you need to use the default for GW and RPA                |
|     calculations (for HF NCORE is supported but not extensively tested      |
|     yet).                                                                   |

 POTCAR:    PAW_PBE Mo_sv 02Feb2006
   VRHFIN =Mo: 4p5s4d

   TITEL  = PAW_PBE Mo_sv 02Feb2006
   POMASS =   95.940; ZVAL   =   14.000    mass and valenz
   ENMAX  =  242.676; ENMIN  =  182.007 eV

 POTCAR:    PAW_PBE Si 05Jan2001
   VRHFIN =Si: s2p2

   TITEL  = PAW_PBE Si 05Jan2001
   POMASS =   28.085; ZVAL   =    4.000    mass and valenz
   ENMAX  =  245.345; ENMIN  =  184.009 eV

  PAW_PBE Mo_sv 02Feb2006               :
  PAW_PBE Si 05Jan2001                  :

 POSCAR: EA258
  positions in direct lattice

 METAGGA = R2SCA    LMAXTAU =  6    LMIXTAU =  F

 ion  position               nearest neighbor table
   1  0.667  0.333  0.250-   7 2.61   8 2.61   6 2.61   6 2.61   8 2.61   7 2.61   3 2.81   3 2.81
                             5 2.81   5 2.81   4 2.81   4 2.81
   2  0.333  0.667  0.750-   5 2.61   4 2.61   3 2.61   3 2.61   4 2.61   5 2.61   6 2.81   6 2.81
                             7 2.81   7 2.81   8 2.81   8 2.81
   3  0.825  0.175  0.750-   5 2.48   4 2.48   2 2.61   2 2.61   4 2.73   5 2.73   1 2.81   1 2.81
                             7 2.89   8 2.89   8 2.89   7 2.89
   4  0.349  0.175  0.750-   5 2.48   3 2.48   2 2.61   2 2.61   5 2.73   3 2.73   1 2.81   1 2.81
                             6 2.89   6 2.89   8 2.89   8 2.89
   5  0.825  0.651  0.750-   4 2.48   3 2.48   2 2.61   2 2.61   4 2.73   3 2.73   1 2.81   1 2.81
                             6 2.89   6 2.89   7 2.89   7 2.89
   6  0.175  0.825  0.250-   7 2.48   8 2.48   1 2.61   1 2.61   8 2.73   7 2.73   2 2.81   2 2.81
                             4 2.89   5 2.89   5 2.89   4 2.89
   7  0.651  0.825  0.250-   8 2.48   6 2.48   1 2.61   1 2.61   8 2.73   6 2.73   2 2.81   2 2.81
                             3 2.89   3 2.89   5 2.89   5 2.89
   8  0.175  0.349  0.250-   7 2.48   6 2.48   1 2.61   1 2.61   7 2.73   6 2.73   2 2.81   2 2.81
                             3 2.89   3 2.89   4 2.89   4 2.89

  LATTYP: Found a hexagonal cell.
 ALAT       =     5.2102846019
 C/A-ratio  =     0.9289356282

  Lattice vectors:

 A1 = (   2.6051420000,  -4.5122390000,   0.0000000000)
 A2 = (   2.6051420000,   4.5122390000,   0.0000000000)
 A3 = (   0.0000000000,   0.0000000000,   4.8400190000)

Analysis of symmetry for initial positions (statically):
 Subroutine PRICEL returns:
 Original cell was already a primitive cell.

 Routine SETGRP: Setting up the symmetry group for a
 hexagonal supercell.

 Subroutine GETGRP returns: Found 24 space group operations
 (whereof 12 operations were pure point group operations)
 out of a pool of 24 trial point group operations.

The static configuration has the point symmetry D_3d.
 The point group associated with its full space group is D_6h.

Analysis of symmetry for dynamics (positions and initial velocities):
 Subroutine PRICEL returns:
 Original cell was already a primitive cell.

 Routine SETGRP: Setting up the symmetry group for a
 hexagonal supercell.

 Subroutine GETGRP returns: Found 24 space group operations
 (whereof 12 operations were pure point group operations)
 out of a pool of 24 trial point group operations.

The dynamic configuration has the point symmetry D_3d.
 The point group associated with its full space group is D_6h.

 Subroutine INISYM returns: Found 24 space group operations
 (whereof 12 operations are pure point group operations),
 and found     1 'primitive' translations

                                     Primitive cell

  volume of cell :     113.7891

  direct lattice vectors                    reciprocal lattice vectors
     2.605142000 -4.512239000  0.000000000     0.191928118 -0.110809733  0.000000000
     2.605142000  4.512239000  0.000000000     0.191928118  0.110809733  0.000000000
     0.000000000  0.000000000  4.840019000     0.000000000  0.000000000  0.206610759

  length of vectors
     5.210284602  5.210284602  4.840019000     0.221619492  0.221619492  0.206610759

  position of ions in fractional coordinates (direct lattice)
     0.666667000  0.333333000  0.250000000
     0.333333000  0.666667000  0.750000000
     0.825421000  0.174579000  0.750000000
     0.349158000  0.174579000  0.750000000
     0.825421000  0.650842000  0.750000000
     0.174579000  0.825421000  0.250000000
     0.650842000  0.825421000  0.250000000
     0.174579000  0.349158000  0.250000000

  ion indices of the primitive-cell ions
   primitive index   ion index
                 1           1
                 2           2
                 3           3
                 4           4
                 5           5
                 6           6
                 7           7
                 8           8

 KPOINTS: EA

Automatic generation of k-mesh.
 Grid dimensions read from file:
 generate k-points for:    8    8    7

 Generating k-lattice:

  Cartesian coordinates                     Fractional coordinates (reciprocal lattice)
     0.023991015 -0.013851217  0.000000000     0.125000000  0.000000000  0.000000000
     0.023991015  0.013851217  0.000000000     0.000000000  0.125000000  0.000000000
     0.000000000  0.000000000  0.029515823     0.000000000  0.000000000  0.142857143

  Length of vectors
     0.027702437  0.027702437  0.029515823

  Shift w.r.t. Gamma in fractional coordinates (k-lattice)
     0.000000000  0.000000000  0.000000000

 Subroutine IBZKPT returns following result:

 Found     40 irreducible k-points:

 Following reciprocal coordinates:
            Coordinates               Weight
  0.000000  0.000000  0.000000      1.000000
  0.125000 -0.000000  0.000000      6.000000
  0.250000 -0.000000  0.000000      6.000000
  0.375000  0.000000  0.000000      6.000000
  0.500000 -0.000000  0.000000      3.000000
  0.125000  0.125000  0.000000      6.000000
  0.250000  0.125000  0.000000     12.000000
  0.375000  0.125000  0.000000     12.000000
  0.250000  0.250000  0.000000      6.000000
  0.375000  0.250000  0.000000      6.000000
  0.000000  0.000000  0.142857      2.000000
  0.125000 -0.000000  0.142857     12.000000
  0.250000 -0.000000  0.142857     12.000000
  0.375000  0.000000  0.142857     12.000000
  0.500000 -0.000000  0.142857      6.000000
  0.125000  0.125000  0.142857     12.000000
  0.250000  0.125000  0.142857     24.000000
  0.375000  0.125000  0.142857     24.000000
  0.250000  0.250000  0.142857     12.000000
  0.375000  0.250000  0.142857     12.000000
  0.000000  0.000000  0.285714      2.000000
  0.125000 -0.000000  0.285714     12.000000
  0.250000 -0.000000  0.285714     12.000000
  0.375000  0.000000  0.285714     12.000000
  0.500000 -0.000000  0.285714      6.000000
  0.125000  0.125000  0.285714     12.000000
  0.250000  0.125000  0.285714     24.000000
  0.375000  0.125000  0.285714     24.000000
  0.250000  0.250000  0.285714     12.000000
  0.375000  0.250000  0.285714     12.000000
  0.000000  0.000000  0.428571      2.000000
  0.125000 -0.000000  0.428571     12.000000
  0.250000 -0.000000  0.428571     12.000000
  0.375000  0.000000  0.428571     12.000000
  0.500000 -0.000000  0.428571      6.000000
  0.125000  0.125000  0.428571     12.000000
  0.250000  0.125000  0.428571     24.000000
  0.375000  0.125000  0.428571     24.000000
  0.250000  0.250000  0.428571     12.000000
  0.375000  0.250000  0.428571     12.000000

 Following cartesian coordinates:
            Coordinates               Weight
  0.000000  0.000000  0.000000      1.000000
  0.023991 -0.013851  0.000000      6.000000
  0.047982 -0.027702  0.000000      6.000000
  0.071973 -0.041554  0.000000      6.000000
  0.095964 -0.055405  0.000000      3.000000
  0.047982  0.000000  0.000000      6.000000
  0.071973 -0.013851  0.000000     12.000000
  0.095964 -0.027702  0.000000     12.000000
  0.095964  0.000000  0.000000      6.000000
  0.119955 -0.013851  0.000000      6.000000
  0.000000  0.000000  0.029516      2.000000
  0.023991 -0.013851  0.029516     12.000000
  0.047982 -0.027702  0.029516     12.000000
  0.071973 -0.041554  0.029516     12.000000
  0.095964 -0.055405  0.029516      6.000000
  0.047982  0.000000  0.029516     12.000000
  0.071973 -0.013851  0.029516     24.000000
  0.095964 -0.027702  0.029516     24.000000
  0.095964  0.000000  0.029516     12.000000
  0.119955 -0.013851  0.029516     12.000000
  0.000000  0.000000  0.059032      2.000000
  0.023991 -0.013851  0.059032     12.000000
  0.047982 -0.027702  0.059032     12.000000
  0.071973 -0.041554  0.059032     12.000000
  0.095964 -0.055405  0.059032      6.000000
  0.047982  0.000000  0.059032     12.000000
  0.071973 -0.013851  0.059032     24.000000
  0.095964 -0.027702  0.059032     24.000000
  0.095964  0.000000  0.059032     12.000000
  0.119955 -0.013851  0.059032     12.000000
  0.000000  0.000000  0.088547      2.000000
  0.023991 -0.013851  0.088547     12.000000
  0.047982 -0.027702  0.088547     12.000000
  0.071973 -0.041554  0.088547     12.000000
  0.095964 -0.055405  0.088547      6.000000
  0.047982  0.000000  0.088547     12.000000
  0.071973 -0.013851  0.088547     24.000000
  0.095964 -0.027702  0.088547     24.000000
  0.095964  0.000000  0.088547     12.000000
  0.119955 -0.013851  0.088547     12.000000

 SYSTEM =  routine with relax: pwdword
 POSCAR =  EA258

 Startparameter for this run:
   NWRITE =      2    write-flag & timer
   PREC   = acc       normal or accurate (medium, high low for compatibility)
   ISTART =      0    job   : 0-new  1-cont  2-samecut
   ICHARG =      2    charge: 1-file 2-atom 10-const
   ISPIN  =      1    spin polarized calculation?
   LNONCOLLINEAR =      F non collinear calculations
[...]
   LHFONE  =     F    Hartree Fock one center treatment
   AEXX    =    0.0000 exact exchange contribution

 Linear response parameters
   LEPSILON=     F    determine dielectric tensor
   LRPA    =     F    only Hartree local field effects (RPA)
   LNABLA  =     F    use nabla operator in PAW spheres
   LVEL    =     F    velocity operator in full k-point grid
   LINTERFAST=   F  fast interpolation
   KINTER  =     0    interpolate to denser k-point grid
   CSHIFT  =0.1000    complex shift for real part using Kramers Kronig
   OMEGAMAX=  -1.0    maximum frequency
   DEG_THRESHOLD= 0.2000000E-02 threshold for treating states as degnerate
   RTIME   =   -0.100 relaxation time in fs
  (WPLASMAI=    0.000 imaginary part of plasma frequency in eV, 0.658/RTIME)
   DFIELD  = 0.0000000 0.0000000 0.0000000 field for delta impulse in time

 Orbital magnetization related:
   ORBITALMAG=     F  switch on orbital magnetization
   LCHIMAG   =     F  perturbation theory with respect to B field
   DQ        =  0.001000  dq finite difference perturbation B field
   LLRAUG    =     F  two centre corrections for induced B field

 Static calculation
 charge density and potential will be updated during run
 non-spin polarized calculation
 Conjugate gradient for all bands (Freysoldt, et al. PRB 79, 241103 (2009))
 preconditioned conjugated gradient
 perform sub-space diagonalisation
    before iterative eigenvector-optimisation
 modified Broyden-mixing scheme, WC =      100.0
 initial mixing is a Kerker type mixing with AMIX =  0.4000 and BMIX =      1.0000
 Hartree-type preconditioning will be used
 using additional bands           10
 reciprocal scheme for non local part
 use partial core corrections
 no Harris-corrections to forces
 use gradient corrections
 use of overlap-Matrix (Vanderbilt PP)
 Gauss-broadening in eV      SIGMA  =   0.02

  energy-cutoff  :      600.00
  volume of cell :      113.79
      direct lattice vectors                 reciprocal lattice vectors
     2.605142000 -4.512239000  0.000000000     0.191928118 -0.110809733  0.000000000
     2.605142000  4.512239000  0.000000000     0.191928118  0.110809733  0.000000000
     0.000000000  0.000000000  4.840019000     0.000000000  0.000000000  0.206610759

  length of vectors
     5.210284602  5.210284602  4.840019000     0.221619492  0.221619492  0.206610759

 k-points in units of 2pi/SCALE and weight: EA
   0.00000000  0.00000000  0.00000000       0.002
   0.02399101 -0.01385122  0.00000000       0.013
   0.04798203 -0.02770243  0.00000000       0.013
   0.07197304 -0.04155365  0.00000000       0.013
   0.09596406 -0.05540487  0.00000000       0.007
   0.04798203  0.00000000  0.00000000       0.013
   0.07197304 -0.01385122  0.00000000       0.027
   0.09596406 -0.02770243  0.00000000       0.027
   0.09596406  0.00000000  0.00000000       0.013
   0.11995507 -0.01385122  0.00000000       0.013
   0.00000000  0.00000000  0.02951582       0.004
   0.02399101 -0.01385122  0.02951582       0.027
   0.04798203 -0.02770243  0.02951582       0.027
   0.07197304 -0.04155365  0.02951582       0.027
   0.09596406 -0.05540487  0.02951582       0.013
   0.04798203  0.00000000  0.02951582       0.027
   0.07197304 -0.01385122  0.02951582       0.054
   0.09596406 -0.02770243  0.02951582       0.054
   0.09596406  0.00000000  0.02951582       0.027
   0.11995507 -0.01385122  0.02951582       0.027
   0.00000000  0.00000000  0.05903165       0.004
   0.02399101 -0.01385122  0.05903165       0.027
   0.04798203 -0.02770243  0.05903165       0.027
   0.07197304 -0.04155365  0.05903165       0.027
   0.09596406 -0.05540487  0.05903165       0.013
   0.04798203  0.00000000  0.05903165       0.027
   0.07197304 -0.01385122  0.05903165       0.054
   0.09596406 -0.02770243  0.05903165       0.054
   0.09596406  0.00000000  0.05903165       0.027
   0.11995507 -0.01385122  0.05903165       0.027
   0.00000000  0.00000000  0.08854747       0.004
   0.02399101 -0.01385122  0.08854747       0.027
   0.04798203 -0.02770243  0.08854747       0.027
   0.07197304 -0.04155365  0.08854747       0.027
   0.09596406 -0.05540487  0.08854747       0.013
   0.04798203  0.00000000  0.08854747       0.027
   0.07197304 -0.01385122  0.08854747       0.054
   0.09596406 -0.02770243  0.08854747       0.054
   0.09596406  0.00000000  0.08854747       0.027
   0.11995507 -0.01385122  0.08854747       0.027

 k-points in reciprocal lattice and weights: EA
   0.00000000  0.00000000  0.00000000       0.002
   0.12500000 -0.00000000  0.00000000       0.013
   0.25000000 -0.00000000  0.00000000       0.013
   0.37500000  0.00000000  0.00000000       0.013
   0.50000000 -0.00000000  0.00000000       0.007
   0.12500000  0.12500000  0.00000000       0.013
   0.25000000  0.12500000  0.00000000       0.027
   0.37500000  0.12500000  0.00000000       0.027
   0.25000000  0.25000000  0.00000000       0.013
   0.37500000  0.25000000  0.00000000       0.013
   0.00000000  0.00000000  0.14285714       0.004
   0.12500000 -0.00000000  0.14285714       0.027
   0.25000000 -0.00000000  0.14285714       0.027
   0.37500000  0.00000000  0.14285714       0.027
   0.50000000 -0.00000000  0.14285714       0.013
   0.12500000  0.12500000  0.14285714       0.027
   0.25000000  0.12500000  0.14285714       0.054
   0.37500000  0.12500000  0.14285714       0.054
   0.25000000  0.25000000  0.14285714       0.027
   0.37500000  0.25000000  0.14285714       0.027
   0.00000000  0.00000000  0.28571429       0.004
   0.12500000 -0.00000000  0.28571429       0.027
   0.25000000 -0.00000000  0.28571429       0.027
   0.37500000  0.00000000  0.28571429       0.027
   0.50000000 -0.00000000  0.28571429       0.013
   0.12500000  0.12500000  0.28571429       0.027
   0.25000000  0.12500000  0.28571429       0.054
   0.37500000  0.12500000  0.28571429       0.054
   0.25000000  0.25000000  0.28571429       0.027
   0.37500000  0.25000000  0.28571429       0.027
   0.00000000  0.00000000  0.42857143       0.004
   0.12500000 -0.00000000  0.42857143       0.027
   0.25000000 -0.00000000  0.42857143       0.027
   0.37500000  0.00000000  0.42857143       0.027
   0.50000000 -0.00000000  0.42857143       0.013
   0.12500000  0.12500000  0.42857143       0.027
   0.25000000  0.12500000  0.42857143       0.054
   0.37500000  0.12500000  0.42857143       0.054
   0.25000000  0.25000000  0.42857143       0.027
   0.37500000  0.25000000  0.42857143       0.027

 position of ions in fractional coordinates (direct lattice)
   0.66666700  0.33333300  0.25000000
   0.33333300  0.66666700  0.75000000
   0.82542100  0.17457900  0.75000000
   0.34915800  0.17457900  0.75000000
   0.82542100  0.65084200  0.75000000
   0.17457900  0.82542100  0.25000000
   0.65084200  0.82542100  0.25000000
   0.17457900  0.34915800  0.25000000

 position of ions in cartesian coordinates  (Angst):
   2.60514200 -1.50408267  1.21000475
   2.60514200  1.50408267  3.63001425
   2.60514200 -2.93675466  3.63001425
   1.36440926 -0.78774217  3.63001425
   3.84587474 -0.78774217  3.63001425
   2.60514200  2.93675466  1.21000475
   3.84587474  0.78774217  1.21000475
   1.36440926  0.78774217  1.21000475

 k-point   1 :   0.0000 0.0000 0.0000  plane waves:    3823
 k-point   2 :   0.1250-0.0000 0.0000  plane waves:    3798
 k-point   3 :   0.2500-0.0000 0.0000  plane waves:    3812
 k-point   4 :   0.3750 0.0000 0.0000  plane waves:    3812
 k-point   5 :   0.5000-0.0000 0.0000  plane waves:    3788
 k-point   6 :   0.1250 0.1250 0.0000  plane waves:    3807
 k-point   7 :   0.2500 0.1250 0.0000  plane waves:    3793
 k-point   8 :   0.3750 0.1250 0.0000  plane waves:    3800
 k-point   9 :   0.2500 0.2500 0.0000  plane waves:    3804
 k-point  10 :   0.3750 0.2500 0.0000  plane waves:    3808
 k-point  11 :   0.0000 0.0000 0.1429  plane waves:    3793
 k-point  12 :   0.1250-0.0000 0.1429  plane waves:    3805
 k-point  13 :   0.2500-0.0000 0.1429  plane waves:    3812
 k-point  14 :   0.3750 0.0000 0.1429  plane waves:    3793
 k-point  15 :   0.5000-0.0000 0.1429  plane waves:    3790
 k-point  16 :   0.1250 0.1250 0.1429  plane waves:    3810
 k-point  17 :   0.2500 0.1250 0.1429  plane waves:    3803
 k-point  18 :   0.3750 0.1250 0.1429  plane waves:    3795
 k-point  19 :   0.2500 0.2500 0.1429  plane waves:    3804
 k-point  20 :   0.3750 0.2500 0.1429  plane waves:    3789
 k-point  21 :   0.0000 0.0000 0.2857  plane waves:    3793
 k-point  22 :   0.1250-0.0000 0.2857  plane waves:    3803
 k-point  23 :   0.2500-0.0000 0.2857  plane waves:    3813
 k-point  24 :   0.3750 0.0000 0.2857  plane waves:    3793
 k-point  25 :   0.5000-0.0000 0.2857  plane waves:    3782
 k-point  26 :   0.1250 0.1250 0.2857  plane waves:    3806
 k-point  27 :   0.2500 0.1250 0.2857  plane waves:    3803
 k-point  28 :   0.3750 0.1250 0.2857  plane waves:    3789
 k-point  29 :   0.2500 0.2500 0.2857  plane waves:    3784
 k-point  30 :   0.3750 0.2500 0.2857  plane waves:    3773
 k-point  31 :   0.0000 0.0000 0.4286  plane waves:    3842
 k-point  32 :   0.1250-0.0000 0.4286  plane waves:    3805
 k-point  33 :   0.2500-0.0000 0.4286  plane waves:    3799
 k-point  34 :   0.3750 0.0000 0.4286  plane waves:    3799
 k-point  35 :   0.5000-0.0000 0.4286  plane waves:    3788
 k-point  36 :   0.1250 0.1250 0.4286  plane waves:    3799
 k-point  37 :   0.2500 0.1250 0.4286  plane waves:    3801
 k-point  38 :   0.3750 0.1250 0.4286  plane waves:    3793
 k-point  39 :   0.2500 0.2500 0.4286  plane waves:    3780
 k-point  40 :   0.3750 0.2500 0.4286  plane waves:    3778

 maximum and minimum number of plane-waves per node :      1934     1869

 maximum number of plane-waves:      3842
 maximum index in each direction:
   IXMAX=   10   IYMAX=   10   IZMAX=    9
   IXMIN=  -10   IYMIN=  -10   IZMIN=  -10

 parallel 3D FFT for wavefunctions:
    minimum data exchange during FFTs selected (reduces bandwidth)
 parallel 3D FFT for charge:
    minimum data exchange during FFTs selected (reduces bandwidth)

 Broyden mixing: mesh for mixing (old mesh)
   NGX = 21   NGY = 21   NGZ = 19
  (NGX  = 84   NGY  = 84   NGZ  = 80)
  gives a total of   8379 points

 initial charge density was supplied:
 charge density of overlapping atoms calculated
 number of electron      52.0000000 magnetization
 keeping initial charge density in first step

 Maximum index for augmentation-charges        17397 (set IRDMAX)

 First call to EWALD:  gamma=   0.366
 Maximum number of real-space cells 3x 3x 3
 Maximum number of reciprocal cells 3x 3x 3

--------------------------------------- Iteration      1(   1)  ---------------------------------------

 eigenvalue-minimisations  :  3012
 total energy-change (2. order) : 0.3056131E+03  (-0.3264025E+04)
 number of electron      52.0000000 magnetization
 augmentation part       52.0000000 magnetization

 Free energy of the ion-electron system (eV)
  alpha Z        PSCENC =       143.38441958
  Ewald energy   TEWEN  =     -3505.02801393
  -Hartree energ DENC   =     -1039.05435326
  -exchange      EXHF   =         0.00000000
  -V(xc)+E(xc)   XCENC  =       127.39443537
  PAW double counting   =      3471.89043361    -3399.76892389
  entropy T*S    EENTRO =        -0.00082323
  eigenvalues    EBANDS =       163.83156535
  atomic energy  EATOM  =      4342.96439884
  free energy    TOTEN  =       305.61313844 eV

  energy without entropy =      305.61396167  energy(sigma->0) =      305.61355005

[...]

 eigenvalue-minimisations  :  3396
 total energy-change (2. order) :-0.4099492E+03  (-0.3996231E+03)
 number of electron      52.0000000 magnetization
 augmentation part       52.0000000 magnetization

[...]

 eigenvalue-minimisations  :     0
 total energy-change (2. order) : 0.1995069E+02  (-0.3491796E+01)
 number of electron      52.0000000 magnetization
 augmentation part        3.6293164 magnetization

[...]

 eigenvalue-minimisations  :     0
 total energy-change (2. order) :-0.4730828E-07  ( 0.8610652E-08)
 number of electron      52.0000000 magnetization
 augmentation part        3.6475088 magnetization

[...]

 eigenvalue-minimisations  :     0
 total energy-change (2. order) :-0.4013600E-08  ( 0.2729744E-10)
 number of electron      52.0000000 magnetization
 augmentation part        3.6474983 magnetization

[...]

--------------------------------------- Iteration      1(  27)  ---------------------------------------

 eigenvalue-minimisations  :     0
 total energy-change (2. order) :-0.4356480E-09  (-0.2073888E-11)
 number of electron      52.0000000 magnetization
 augmentation part        3.6474983 magnetization

 Free energy of the ion-electron system (eV)
  alpha Z        PSCENC =       143.38441958
  Ewald energy   TEWEN  =     -3505.02801393
  -Hartree energ DENC   =      -999.41443192
  -exchange      EXHF   =         0.00000000
  -V(xc)+E(xc)   XCENC  =       132.78042135
  PAW double counting   =      7316.07245245    -7249.17980069
  entropy T*S    EENTRO =        -0.00031177
  eigenvalues    EBANDS =      -283.55380742
  atomic energy  EATOM  =      4342.96439884
  free energy    TOTEN  =      -101.97467352 eV

  energy without entropy =     -101.97436174  energy(sigma->0) =     -101.97451763

  average scaling for gradient   1.6401

 average (electrostatic) potential at core
  the test charge radii are     1.0818  0.9892
  (the norm of the test charge is              1.0000)
       1 -75.2742       2 -75.2742       3 -81.7121       4 -81.7121       5 -81.7121
       6 -81.7121       7 -81.7121       8 -81.7121

 E-fermi :  11.4712     XC(G=0): -12.7660     alpha+bet :-18.1385

 Fermi energy:        11.4712211204

 k-point     1 :       0.0000    0.0000    0.0000
  band No.  band energies     occupation
      1     -51.3419      2.00000
      2     -51.3370      2.00000
      3     -24.8460      2.00000
      4     -24.8460      2.00000
      5     -24.8157      2.00000
      6     -24.8157      2.00000
      7     -24.7820      2.00000
      8     -24.7404      2.00000
      9      -3.0869      2.00000
     10       0.7717      2.00000
     11       3.1099      2.00000
     12       3.1100      2.00000
     13       3.8867      2.00000
     14       4.4421      2.00000
     15       4.4421      2.00000
     16       4.6528      2.00000
     17       6.1929      2.00000
     18       7.8633      2.00000
     19       7.8634      2.00000
     20       8.4181      2.00000
     21       8.4182      2.00000
     22       8.7969      2.00000
     23       8.7970      2.00000
     24       9.4559      2.00000
     25       9.4560      2.00000
     26      10.6589      2.00000
     27      12.9536      0.00000
     28      13.0290      0.00000
     29      13.3894      0.00000
     30      13.3894      0.00000
     31      13.5684      0.00000
     32      13.5684      0.00000
     33      13.7365      0.00000
     34      14.1348      0.00000
     35      14.1348      0.00000
     36      14.5529      0.00000

[...]

 k-point    40 :       0.3750    0.2500    0.4286
  band No.  band energies     occupation
      1     -51.3394      2.00000
      2     -51.3392      2.00000
      3     -24.8424      2.00000
      4     -24.8408      2.00000
      5     -24.8379      2.00000
      6     -24.8280      2.00000
      7     -24.7577      2.00000
      8     -24.7564      2.00000
      9       0.0654      2.00000
     10       0.1250      2.00000
     11       0.5728      2.00000
     12       1.0631      2.00000
     13       2.3055      2.00000
     14       2.5675      2.00000
     15       6.1190      2.00000
     16       6.5561      2.00000
     17       6.7868      2.00000
     18       6.9918      2.00000
     19       8.1470      2.00000
     20       8.1554      2.00000
     21       9.4484      2.00000
     22       9.6144      2.00000
     23      10.1261      2.00000
     24      10.5304      2.00000
     25      10.8423      2.00000
     26      10.8687      2.00000
     27      11.8038      0.00000
     28      12.0178      0.00000
     29      12.6762      0.00000
     30      12.9839      0.00000
     31      13.9864      0.00000
     32      14.1490      0.00000
     33      14.4841      0.00000
     34      14.7016      0.00000
     35      15.4940      0.00000
     36      15.7299      0.00000

 soft charge-density along one line, spin component           1
         0         1         2         3         4         5         6         7         8         9
 total charge-density along one line

------------------------ aborting loop because EDIFF is reached ----------------------------------------

  FREE ENERGIE OF THE ION-ELECTRON SYSTEM (eV)
  free  energy   TOTEN  =      -101.97467352 eV

  energy  without entropy=     -101.97436174  energy(sigma->0) =     -101.97451763

 writing wavefunctions