 vasp.6.2.0 18Jan21 (build Jan 05 2022 15:41:44) complex

 executed on             LinuxIFC date 2025.05.07  16:57:44

 INCAR:
   SYSTEM = routine with relax: pwdword
   ICHARG = 2
   NPAR = 6
   KPAR = 2
   NCORE = 2
   ADDGRID = T
   PREC = Acc
   ENCUT = 600
   METAGGA = R2SCAN
   LASPH = .TRUE.
   LMIXTAU = .FALSE.
   ALGO = A
   EDIFF = 1E-9
   NELM = 100
   NELMIN = 6
   IALGO = 38
   LREAL = F
   NSW = 0
   ISIF = -1
   ISMEAR = 0
   SIGMA = 0.02

 POTCAR:    PAW_PBE B 06Sep2000
 POTCAR:    PAW_PBE Mo_sv 02Feb2006
 POTCAR:    PAW_PBE Si 05Jan2001
|           W    W    AA    RRRRR   N    N  II  N    N   GGGG   !!!           |
|           W    W   A  A   R    R  NN   N  II  NN   N  G    G  !!!           |
|           W    W  A    A  R    R  N N  N  II  N N  N  G       !!!           |
|           W WW W  AAAAAA  RRRRR   N  N N  II  N  N N  G  GGG   !            |
|           WW  WW  A    A  R   R   N   NN  II  N   NN  G    G                |
|           W    W  A    A  R    R  N    N  II  N    N   GGGG   !!!           |
|     For optimal performance we recommend to set                             |
|       NCORE = 2 up to number-of-cores-per-socket                            |
|     This setting can greatly improve the performance of VASP for DFT.       |
|     The default, NCORE=1 might be grossly inefficient on modern             |
|     multi-core architectures or massively parallel machines. Do your        |
|     Unfortunately you need to use the default for GW and RPA                |
|     calculations (for HF NCORE is supported but not extensively tested      |
|     yet).                                                                   |

 POTCAR:    PAW_PBE B 06Sep2000
   VRHFIN =B: s2p1

   TITEL  = PAW_PBE B 06Sep2000
   POMASS =   10.811; ZVAL   =    3.000    mass and valenz
   ENMAX  =  318.614; ENMIN  =  238.960 eV

 POTCAR:    PAW_PBE Mo_sv 02Feb2006
   VRHFIN =Mo: 4p5s4d

   TITEL  = PAW_PBE Mo_sv 02Feb2006
   POMASS =   95.940; ZVAL   =   14.000    mass and valenz
   ENMAX  =  242.676; ENMIN  =  182.007 eV

 POTCAR:    PAW_PBE Si 05Jan2001
   VRHFIN =Si: s2p2

   TITEL  = PAW_PBE Si 05Jan2001
   POMASS =   28.085; ZVAL   =    4.000    mass and valenz
   ENMAX  =  245.345; ENMIN  =  184.009 eV

  PAW_PBE B 06Sep2000                   :
  PAW_PBE Mo_sv 02Feb2006               :
  PAW_PBE Si 05Jan2001                  :

 POSCAR: EA104
  positions in direct lattice

 METAGGA = R2SCA    LMAXTAU =  6    LMIXTAU =  F

 ion  position               nearest neighbor table
   1  0.502  0.002  0.248-  10 2.23  13 2.32  14 2.32   9 2.81  11 2.81
   2  0.498  0.998  0.752-  12 2.23  13 2.32  14 2.32  11 2.81   9 2.81
   3  0.002  0.753  0.500-  13 2.23  12 2.32  10 2.32   9 2.81  11 2.81
   4  0.998  0.247  0.500-  14 2.23  10 2.32  12 2.32  11 2.81   9 2.81
   5  0.753  0.253  0.752-  12 2.23  13 2.32  14 2.32   9 2.81  11 2.81
   6  0.247  0.747  0.248-  10 2.23  14 2.32  13 2.32  11 2.81   9 2.81
   7  0.253  0.502  0.500-  14 2.23  12 2.32  10 2.32  11 2.81   9 2.81
   8  0.747  0.498  0.500-  13 2.23  10 2.32  12 2.32   9 2.81  11 2.81
   9  0.250  0.250  0.000-  15 2.48  16 2.48   8 2.81   3 2.81   7 2.81   4 2.81   5 2.81   6 2.81
                             1 2.81   2 2.81  10 3.44  12 3.44  13 3.44  13 3.44  14 3.44  14 3.44
  10  0.173  0.673  0.846-   6 2.23   1 2.23   4 2.32   8 2.32   7 2.32   3 2.32  15 2.38  16 2.38
                            12 3.14  14 3.36  13 3.36  14 3.36  13 3.36  11 3.44   9 3.44   9 3.44
  11  0.750  0.750  0.000-  15 2.48  16 2.48   4 2.81   7 2.81   3 2.81   8 2.81   6 2.81   5 2.81
                             1 2.81   2 2.81  10 3.44  12 3.44  14 3.44  14 3.44  13 3.44  13 3.44
  12  0.827  0.327  0.154-   5 2.23   2 2.23   3 2.32   7 2.32   4 2.32   8 2.32  15 2.38  16 2.38
                            10 3.14  13 3.36  14 3.36  13 3.36  14 3.36   9 3.44  11 3.44   9 3.44
  13  0.673  0.827  0.500-   3 2.23   8 2.23   5 2.32   6 2.32   1 2.32   2 2.32  15 2.38  16 2.38
                            14 3.14  12 3.36  10 3.36  12 3.36  10 3.36   9 3.44   9 3.44  11 3.44
  14  0.327  0.173  0.500-   4 2.23   7 2.23   6 2.32   5 2.32   1 2.32   2 2.32  16 2.38  15 2.38
                            13 3.14  12 3.36  10 3.36  10 3.36  12 3.36  11 3.44  11 3.44   9 3.44
  15  0.000  0.000  0.000-  14 2.38  13 2.38  10 2.38  12 2.38  11 2.48   9 2.48
  16  0.500  0.500  0.000-  13 2.38  14 2.38  10 2.38  12 2.38  11 2.48   9 2.48

  LATTYP: Found a body centered tetragonal cell.
 ALAT       =     6.4222350843
 C/A-ratio  =     1.5469630103

  Lattice vectors:

 A1 = (   5.6441572782,   0.0000000000,  -3.6663390453)
 A2 = (  -1.6634687211,   5.3934574435,  -3.6663390453)
 A3 = (   0.0000000000,   0.0000000000,   6.7304200000)

Analysis of symmetry for initial positions (statically):
 Subroutine PRICEL returns:
 Original cell was already a primitive cell.

 Routine SETGRP: Setting up the symmetry group for a
 body centered tetragonal supercell.

 Subroutine GETGRP returns: Found  4 space group operations
 (whereof  2 operations were pure point group operations)
 out of a pool of 16 trial point group operations.

The static configuration has the point symmetry S_2 .
 The point group associated with its full space group is C_2h.

Analysis of symmetry for dynamics (positions and initial velocities):
 Subroutine PRICEL returns:
 Original cell was already a primitive cell.

 Routine SETGRP: Setting up the symmetry group for a
 body centered tetragonal supercell.

 Subroutine GETGRP returns: Found  4 space group operations
 (whereof  2 operations were pure point group operations)
 out of a pool of 16 trial point group operations.

The dynamic configuration has the point symmetry S_2 .
 The point group associated with its full space group is C_2h.

 Subroutine INISYM returns: Found  4 space group operations
 (whereof  2 operations are pure point group operations),
 and found     1 'primitive' translations

                                     Primitive cell

  volume of cell :     204.8842

  direct lattice vectors                    reciprocal lattice vectors
     5.644157278  0.000000000 -3.666339045     0.177174368  0.054644729  0.000000000
    -1.663468721  5.393457444 -3.666339045     0.000000000  0.185409825  0.000000000
     0.000000000  0.000000000  6.730420000     0.096514230  0.130767676  0.148579138

  length of vectors
     6.730420000  6.730420000  6.730420000     0.185409825  0.185409825  0.220206589

  position of ions in fractional coordinates (direct lattice)
     0.501910000  0.001910000  0.248470000
     0.498090000  0.998090000  0.751530000
     0.001910000  0.753440000  0.500000000
     0.998090000  0.246560000  0.500000000
     0.753440000  0.253440000  0.751530000
     0.246560000  0.746560000  0.248470000
     0.253440000  0.501910000  0.500000000
     0.746560000  0.498090000  0.500000000
     0.250000000  0.250000000  0.000000000
     0.172910000  0.672910000  0.845830000
     0.750000000  0.750000000  0.000000000
     0.827090000  0.327090000  0.154170000
     0.672910000  0.827090000  0.500000000
     0.327090000  0.172910000  0.500000000
     0.000000000  0.000000000  0.000000000
     0.500000000  0.500000000  0.000000000

  ion indices of the primitive-cell ions
   primitive index   ion index
                 1           1
                 2           2
                 3           3
                 4           4
                 5           5
                 6           6
                 7           7
                 8           8
                 9           9
                10          10
                11          11
                12          12
                13          13
                14          14
                15          15
                16          16

 KPOINTS: EA

Automatic generation of k-mesh.
 Grid dimensions read from file:
 generate k-points for:    7    7    8

 Generating k-lattice:

  Cartesian coordinates                     Fractional coordinates (reciprocal lattice)
     0.025310624  0.007806390  0.000000000     0.142857143  0.000000000  0.000000000
     0.000000000  0.026487118  0.000000000     0.000000000  0.142857143  0.000000000
     0.012064279  0.016345960  0.018572392     0.000000000  0.000000000  0.125000000

  Length of vectors
     0.026487118  0.026487118  0.027525824

  Shift w.r.t. Gamma in fractional coordinates (k-lattice)
     0.000000000  0.000000000  0.000000000

 WARNING: IBZKPT: internal override: KBLOWUP is changed to .FALSE.
      ... skipping the blow-up phase ...

 Subroutine IBZKPT returns following result:

 Found    116 irreducible k-points:

 Following reciprocal coordinates:
            Coordinates               Weight
  0.000000  0.000000  0.000000      1.000000
  0.142857 -0.000000  0.000000      4.000000
  0.285714 -0.000000  0.000000      4.000000
  0.428571 -0.000000  0.000000      4.000000
  0.142857  0.142857  0.000000      2.000000
  0.285714  0.142857  0.000000      4.000000
  0.428571  0.142857  0.000000      4.000000
 -0.428571  0.142857  0.000000      4.000000
 -0.285714  0.142857  0.000000      4.000000
 -0.142857  0.142857  0.000000      2.000000
  0.285714  0.285714  0.000000      2.000000
  0.428571  0.285714  0.000000      4.000000
 -0.428571  0.285714  0.000000      4.000000
 -0.285714  0.285714  0.000000      2.000000
  0.428571  0.428571  0.000000      2.000000
 -0.428571  0.428571  0.000000      2.000000
  0.000000  0.000000  0.125000      2.000000
  0.142857  0.000000  0.125000      4.000000
  0.285714 -0.000000  0.125000      4.000000
  0.428571  0.000000  0.125000      4.000000
 -0.428571  0.000000  0.125000      4.000000
 -0.285714  0.000000  0.125000      4.000000
 -0.142857  0.000000  0.125000      4.000000
  0.142857  0.142857  0.125000      2.000000
  0.285714  0.142857  0.125000      4.000000
  0.428571  0.142857  0.125000      4.000000
 -0.428571  0.142857  0.125000      4.000000
 -0.285714  0.142857  0.125000      4.000000
 -0.142857  0.142857  0.125000      4.000000
  0.285714  0.285714  0.125000      2.000000
  0.428571  0.285714  0.125000      4.000000
 -0.428571  0.285714  0.125000      4.000000
 -0.285714  0.285714  0.125000      4.000000
 -0.142857  0.285714  0.125000      4.000000
  0.428571  0.428571  0.125000      2.000000
 -0.428571  0.428571  0.125000      4.000000
 -0.285714  0.428571  0.125000      4.000000
 -0.142857  0.428571  0.125000      4.000000
 -0.428571 -0.428571  0.125000      2.000000
 -0.285714 -0.428571  0.125000      4.000000
 -0.142857 -0.428571  0.125000      4.000000
 -0.285714 -0.285714  0.125000      2.000000
 -0.142857 -0.285714  0.125000      4.000000
 -0.142857 -0.142857  0.125000      2.000000
  0.000000  0.000000  0.250000      2.000000
  0.142857 -0.000000  0.250000      4.000000
  0.285714  0.000000  0.250000      4.000000
  0.428571 -0.000000  0.250000      4.000000
 -0.428571  0.000000  0.250000      4.000000
 -0.285714  0.000000  0.250000      4.000000
 -0.142857  0.000000  0.250000      4.000000
  0.142857  0.142857  0.250000      2.000000
  0.285714  0.142857  0.250000      4.000000
  0.428571  0.142857  0.250000      4.000000
 -0.428571  0.142857  0.250000      4.000000
[...]
   0.28571429  0.14285714  0.25000000       0.010
   0.42857143  0.14285714  0.25000000       0.010
  -0.42857143  0.14285714  0.25000000       0.010
  -0.28571429  0.14285714  0.25000000       0.010
  -0.14285714  0.14285714  0.25000000       0.010
   0.28571429  0.28571429  0.25000000       0.005
   0.42857143  0.28571429  0.25000000       0.010
  -0.42857143  0.28571429  0.25000000       0.010
[...]
   0.14285714  0.00000000  0.50000000       0.010
   0.28571429 -0.00000000  0.50000000       0.010
   0.42857143  0.00000000  0.50000000       0.010
   0.14285714  0.14285714  0.50000000       0.005
   0.28571429  0.14285714  0.50000000       0.010
   0.42857143  0.14285714  0.50000000       0.010
  -0.42857143  0.14285714  0.50000000       0.010
  -0.28571429  0.14285714  0.50000000       0.010
  -0.14285714  0.14285714  0.50000000       0.005
   0.28571429  0.28571429  0.50000000       0.005
   0.42857143  0.28571429  0.50000000       0.010
  -0.42857143  0.28571429  0.50000000       0.010
  -0.28571429  0.28571429  0.50000000       0.005
   0.42857143  0.42857143  0.50000000       0.005
  -0.42857143  0.42857143  0.50000000       0.005

 position of ions in fractional coordinates (direct lattice)
   0.50191000  0.00191000  0.24847000
   0.49809000  0.99809000  0.75153000
   0.00191000  0.75344000  0.50000000
   0.99809000  0.24656000  0.50000000
   0.75344000  0.25344000  0.75153000
   0.24656000  0.74656000  0.24847000
   0.25344000  0.50191000  0.50000000
   0.74656000  0.49809000  0.50000000
   0.25000000  0.25000000  0.00000000
   0.17291000  0.67291000  0.84583000
   0.75000000  0.75000000  0.00000000
   0.82709000  0.32709000  0.15417000
   0.67291000  0.82709000  0.50000000
   0.32709000  0.17291000  0.50000000
   0.00000000  0.00000000  0.00000000
   0.50000000  0.50000000  0.00000000

 position of ions in cartesian coordinates  (Angst):
   2.82968175  0.01030150 -0.17486748
   1.15100680  5.38315594 -0.42739061
  -1.24254353  4.06364658  0.59584080
   5.22323209  1.32981087 -1.19809889
   3.83094435  1.36691785  1.36654908
   0.14974421  4.02653959 -1.96880718
   0.59554363  2.70703023  0.59584080
   3.38514492  2.68642722 -1.19809889
   0.99517214  1.34836436 -1.83316952
  -0.14343350  3.62931145  2.59172826
   2.98551642  4.04509308 -5.49950857
   4.12412206  1.76414600 -3.19398635
   2.42217153  4.46087472 -2.13429857
   1.55851703  0.93258273  1.53204048
   0.00000000  0.00000000  0.00000000
   1.99034428  2.69672872 -3.66633905

 k-point   1 :   0.0000 0.0000 0.0000  plane waves:    6871
 k-point   2 :   0.1429-0.0000 0.0000  plane waves:    6845
 k-point   3 :   0.2857-0.0000 0.0000  plane waves:    6843
 k-point   4 :   0.4286-0.0000 0.0000  plane waves:    6840
 k-point   5 :   0.1429 0.1429 0.0000  plane waves:    6842
 k-point   6 :   0.2857 0.1429 0.0000  plane waves:    6832
 k-point   7 :   0.4286 0.1429 0.0000  plane waves:    6836
 k-point   8 :  -0.4286 0.1429 0.0000  plane waves:    6842
 k-point   9 :  -0.2857 0.1429 0.0000  plane waves:    6850
 k-point  10 :  -0.1429 0.1429 0.0000  plane waves:    6852
 k-point  11 :   0.2857 0.2857 0.0000  plane waves:    6841
 k-point  12 :   0.4286 0.2857 0.0000  plane waves:    6857
 k-point  13 :  -0.4286 0.2857 0.0000  plane waves:    6826
 k-point  14 :  -0.2857 0.2857 0.0000  plane waves:    6826
 k-point  15 :   0.4286 0.4286 0.0000  plane waves:    6840
 k-point  16 :  -0.4286 0.4286 0.0000  plane waves:    6838
 k-point  17 :   0.0000 0.0000 0.1250  plane waves:    6850
 k-point  18 :   0.1429 0.0000 0.1250  plane waves:    6853
 k-point  19 :   0.2857-0.0000 0.1250  plane waves:    6845
 k-point  20 :   0.4286 0.0000 0.1250  plane waves:    6837
 k-point  21 :  -0.4286 0.0000 0.1250  plane waves:    6836
 k-point  22 :  -0.2857 0.0000 0.1250  plane waves:    6841
 k-point  23 :  -0.1429 0.0000 0.1250  plane waves:    6853
 k-point  24 :   0.1429 0.1429 0.1250  plane waves:    6842
 k-point  25 :   0.2857 0.1429 0.1250  plane waves:    6842
 k-point  26 :   0.4286 0.1429 0.1250  plane waves:    6838
 k-point  27 :  -0.4286 0.1429 0.1250  plane waves:    6838
 k-point  28 :  -0.2857 0.1429 0.1250  plane waves:    6848
 k-point  29 :  -0.1429 0.1429 0.1250  plane waves:    6855
 k-point  30 :   0.2857 0.2857 0.1250  plane waves:    6844
 k-point  31 :   0.4286 0.2857 0.1250  plane waves:    6830
 k-point  32 :  -0.4286 0.2857 0.1250  plane waves:    6825
 k-point  33 :  -0.2857 0.2857 0.1250  plane waves:    6831
 k-point  34 :  -0.1429 0.2857 0.1250  plane waves:    6848
 k-point  35 :   0.4286 0.4286 0.1250  plane waves:    6835
 k-point  36 :  -0.4286 0.4286 0.1250  plane waves:    6837
 k-point  37 :  -0.2857 0.4286 0.1250  plane waves:    6844
 k-point  38 :  -0.1429 0.4286 0.1250  plane waves:    6842
 k-point  39 :  -0.4286-0.4286 0.1250  plane waves:    6836
 k-point  40 :  -0.2857-0.4286 0.1250  plane waves:    6836
 k-point  41 :  -0.1429-0.4286 0.1250  plane waves:    6837
 k-point  42 :  -0.2857-0.2857 0.1250  plane waves:    6823
 k-point  43 :  -0.1429-0.2857 0.1250  plane waves:    6843
 k-point  44 :  -0.1429-0.1429 0.1250  plane waves:    6859
 k-point  45 :   0.0000 0.0000 0.2500  plane waves:    6836
 k-point  46 :   0.1429-0.0000 0.2500  plane waves:    6825
 k-point  47 :   0.2857 0.0000 0.2500  plane waves:    6848
 k-point  48 :   0.4286-0.0000 0.2500  plane waves:    6855
 k-point  49 :  -0.4286 0.0000 0.2500  plane waves:    6830
 k-point  50 :  -0.2857 0.0000 0.2500  plane waves:    6846
 k-point  51 :  -0.1429 0.0000 0.2500  plane waves:    6845
 k-point  52 :   0.1429 0.1429 0.2500  plane waves:    6824
 k-point  53 :   0.2857 0.1429 0.2500  plane waves:    6837
 k-point  54 :   0.4286 0.1429 0.2500  plane waves:    6844
 k-point  55 :  -0.4286 0.1429 0.2500  plane waves:    6838
 k-point  56 :  -0.2857 0.1429 0.2500  plane waves:    6850
 k-point  57 :  -0.1429 0.1429 0.2500  plane waves:    6839
 k-point  58 :   0.2857 0.2857 0.2500  plane waves:    6856
 k-point  59 :   0.4286 0.2857 0.2500  plane waves:    6839
 k-point  60 :  -0.4286 0.2857 0.2500  plane waves:    6838
[...]
 k-point 102 :   0.1429 0.0000 0.5000  plane waves:    6829
 k-point 103 :   0.2857-0.0000 0.5000  plane waves:    6841
 k-point 104 :   0.4286 0.0000 0.5000  plane waves:    6831
 k-point 105 :   0.1429 0.1429 0.5000  plane waves:    6840
 k-point 106 :   0.2857 0.1429 0.5000  plane waves:    6837
 k-point 107 :   0.4286 0.1429 0.5000  plane waves:    6830
 k-point 108 :  -0.4286 0.1429 0.5000  plane waves:    6834
 k-point 109 :  -0.2857 0.1429 0.5000  plane waves:    6836
 k-point 110 :  -0.1429 0.1429 0.5000  plane waves:    6852
 k-point 111 :   0.2857 0.2857 0.5000  plane waves:    6828
 k-point 112 :   0.4286 0.2857 0.5000  plane waves:    6815
 k-point 113 :  -0.4286 0.2857 0.5000  plane waves:    6809
 k-point 114 :  -0.2857 0.2857 0.5000  plane waves:    6822
 k-point 115 :   0.4286 0.4286 0.5000  plane waves:    6808
 k-point 116 :  -0.4286 0.4286 0.5000  plane waves:    6802

 maximum and minimum number of plane-waves per node :      3462     3369

 maximum number of plane-waves:      6871
 maximum index in each direction:
   IXMAX=   13   IYMAX=   13   IZMAX=   13
   IXMIN=  -13   IYMIN=  -13   IZMIN=  -13

 parallel 3D FFT for wavefunctions:
    minimum data exchange during FFTs selected (reduces bandwidth)
 parallel 3D FFT for charge:
    minimum data exchange during FFTs selected (reduces bandwidth)

 Broyden mixing: mesh for mixing (old mesh)
   NGX = 27   NGY = 27   NGZ = 27
  (NGX  =108   NGY  =108   NGZ  =108)
  gives a total of  19683 points

 initial charge density was supplied:
 charge density of overlapping atoms calculated
 number of electron     116.0000000 magnetization
 keeping initial charge density in first step

 Maximum index for augmentation-charges        21889 (set IRDMAX)

 First call to EWALD:  gamma=   0.301
 Maximum number of real-space cells 3x 3x 3
 Maximum number of reciprocal cells 3x 3x 3

--------------------------------------- Iteration      1(   1)  ---------------------------------------

 eigenvalue-minimisations  : 17208
 total energy-change (2. order) : 0.1103118E+04  (-0.7650648E+04)
 number of electron     116.0000000 magnetization
 augmentation part      116.0000000 magnetization

 Free energy of the ion-electron system (eV)
  alpha Z        PSCENC =       560.55952603
  Ewald energy   TEWEN  =     -9231.22116642
  -Hartree energ DENC   =     -2819.16177268
  -exchange      EXHF   =         0.00000000
  -V(xc)+E(xc)   XCENC  =       513.95572288
  PAW double counting   =      9417.46121024    -9379.23717351
  entropy T*S    EENTRO =        -0.00039539
  eigenvalues    EBANDS =        91.57674253
  atomic energy  EATOM  =     11949.18504973
  free energy    TOTEN  =      1103.11774342 eV

  energy without entropy =     1103.11813881  energy(sigma->0) =     1103.11794111

[...]

 eigenvalue-minimisations  : 18336
 total energy-change (2. order) :-0.1303761E+04  (-0.1267215E+04)
 number of electron     116.0000000 magnetization
 augmentation part      116.0000000 magnetization

[...]

 eigenvalue-minimisations  :     0
 total energy-change (2. order) :-0.5547918E-08  ( 0.2672977E-08)
 number of electron     116.0000001 magnetization
 augmentation part       14.0737611 magnetization

[...]

 eigenvalue-minimisations  :     0
 total energy-change (2. order) :-0.1595254E-07  ( 0.1127684E-08)
 number of electron     116.0000001 magnetization
 augmentation part       14.0737638 magnetization

[...]

 eigenvalue-minimisations  :     0
 total energy-change (2. order) :-0.4360118E-08  (-0.3844988E-10)
 number of electron     116.0000001 magnetization
 augmentation part       14.0737634 magnetization

[...]

--------------------------------------- Iteration      1(  42)  ---------------------------------------

 eigenvalue-minimisations  :     0
 total energy-change (2. order) : 0.9276846E-09  (-0.1587345E-10)
 number of electron     116.0000001 magnetization
 augmentation part       14.0737631 magnetization

 Free energy of the ion-electron system (eV)
  alpha Z        PSCENC =       560.55952603
  Ewald energy   TEWEN  =     -9231.22116642
  -Hartree energ DENC   =     -2681.16822493
  -exchange      EXHF   =         0.00000000
  -V(xc)+E(xc)   XCENC  =       523.64056531
  PAW double counting   =     13411.64199070   -13388.92978806
  entropy T*S    EENTRO =        -0.00153616
  eigenvalues    EBANDS =     -1360.64435793
  atomic energy  EATOM  =     11949.18504973
  free energy    TOTEN  =      -216.93794174 eV

  energy without entropy =     -216.93640558  energy(sigma->0) =     -216.93717366

  average scaling for gradient   0.9372

 average (electrostatic) potential at core
  the test charge radii are     0.7672  1.0818  0.9892
  (the norm of the test charge is              1.0000)
       1 -26.1686       2 -26.1686       3 -26.1660       4 -26.1660       5 -26.1675
       6 -26.1675       7 -26.1660       8 -26.1660       9 -78.6021      10 -77.9395
      11 -78.6021      12 -77.9395      13 -77.9351      14 -77.9351      15 -83.6345
      16 -83.6345

 E-fermi :   8.8278     XC(G=0): -12.7747     alpha+bet :-15.8249

 Fermi energy:         8.8278399983

 k-point     1 :       0.0000    0.0000    0.0000
  band No.  band energies     occupation
      1     -54.5583      2.00000
      2     -54.5578      2.00000
      3     -54.0621      2.00000
      4     -54.0383      2.00000
      5     -54.0375      2.00000
      6     -54.0341      2.00000
      7     -28.0890      2.00000
      8     -28.0715      2.00000
      9     -27.8399      2.00000
     10     -27.8394      2.00000
     11     -27.8378      2.00000
     12     -27.8375      2.00000
     13     -27.8184      2.00000
     14     -27.6444      2.00000
     15     -27.6440      2.00000
     16     -27.6362      2.00000
     17     -27.6271      2.00000
     18     -27.4806      2.00000
     19     -27.4717      2.00000
     20     -27.4708      2.00000
     21     -27.4656      2.00000
     22     -27.4524      2.00000
     23     -27.4421      2.00000
     24     -27.4396      2.00000
     25      -3.7065      2.00000
     26      -0.2533      2.00000
     27      -0.0166      2.00000
     28       0.2417      2.00000
     29       0.2427      2.00000
     30       0.2451      2.00000
     31       0.5310      2.00000
     32       2.0006      2.00000
     33       2.1743      2.00000
     34       2.2241      2.00000
     35       2.2253      2.00000
     36       2.5877      2.00000
     37       3.1842      2.00000
     38       3.1845      2.00000
     39       3.5066      2.00000
     40       4.1061      2.00000
     41       4.5035      2.00000
     42       5.1135      2.00000
     43       5.1140      2.00000
     44       5.8207      2.00000
     45       5.8212      2.00000
     46       6.0971      2.00000
     47       6.2748      2.00000
     48       6.7548      2.00000
     49       6.7559      2.00000
     50       6.8645      2.00000
     51       7.0228      2.00000
     52       7.2117      2.00000
     53       7.2127      2.00000
     54       7.7932      2.00000
     55       7.9809      2.00000
     56       8.0004      2.00000
     57       8.2029      2.00000
     58       8.3478      2.00000
     59       8.3529      2.00000
     60       8.6259      2.00000
     61       8.6262      2.00000
     62       8.8542      0.06263
     63       9.4010      0.00000
     64       9.4014      0.00000
     65      10.2396      0.00000
     66      10.6723      0.00000
     67      10.6762      0.00000
     68      10.7389      0.00000
     69      11.1604      0.00000
     70      11.1612      0.00000
     71      11.2269      0.00000
     72      11.4415      0.00000

[...]

 k-point   116 :      -0.4286    0.4286    0.5000
  band No.  band energies     occupation
      1     -54.5580      2.00000
      2     -54.5579      2.00000
      3     -54.0619      2.00000
      4     -54.0387      2.00000
      5     -54.0383      2.00000
      6     -54.0334      2.00000
      7     -28.0670      2.00000
      8     -28.0592      2.00000
      9     -27.8350      2.00000
     10     -27.8343      2.00000
     11     -27.8281      2.00000
     12     -27.8278      2.00000
     13     -27.8159      2.00000
     14     -27.6653      2.00000
     15     -27.6607      2.00000
     16     -27.6391      2.00000
     17     -27.6142      2.00000
     18     -27.4939      2.00000
     19     -27.4780      2.00000
     20     -27.4779      2.00000
     21     -27.4654      2.00000
     22     -27.4549      2.00000
     23     -27.4502      2.00000
     24     -27.4462      2.00000
     25      -2.9730      2.00000
     26      -0.8122      2.00000
     27      -0.6520      2.00000
     28      -0.4947      2.00000
     29       0.2186      2.00000
     30       0.2473      2.00000
     31       0.8377      2.00000
     32       0.9340      2.00000
     33       2.3378      2.00000
     34       2.5238      2.00000
     35       3.0084      2.00000
     36       3.0781      2.00000
     37       3.2729      2.00000
     38       3.5581      2.00000
     39       3.8448      2.00000
     40       4.5996      2.00000
     41       4.8137      2.00000
     42       4.9156      2.00000
     43       5.2689      2.00000
     44       5.4880      2.00000
     45       5.6078      2.00000
     46       5.8543      2.00000
     47       5.9142      2.00000
     48       5.9673      2.00000
     49       6.3985      2.00000
     50       6.5117      2.00000
     51       6.6102      2.00000
     52       7.0563      2.00000
     53       7.6334      2.00000
     54       7.6622      2.00000
     55       8.4374      2.00000
     56       8.6582      2.00000
     57       8.7148      2.00000
     58       8.7812      1.99902
     59       9.0494      0.00000
     60       9.0914      0.00000
     61       9.3770      0.00000
     62       9.6930      0.00000
     63      10.0119      0.00000
     64      10.0427      0.00000
     65      10.0664      0.00000
     66      10.2662      0.00000
     67      10.3319      0.00000
     68      10.5388      0.00000
     69      10.6772      0.00000
     70      10.7512      0.00000
     71      10.8016      0.00000
     72      11.3247      0.00000

 soft charge-density along one line, spin component           1
         0         1         2         3         4         5         6         7         8         9
 total charge-density along one line

------------------------ aborting loop because EDIFF is reached ----------------------------------------

  FREE ENERGIE OF THE ION-ELECTRON SYSTEM (eV)
  free  energy   TOTEN  =      -216.93794174 eV

  energy  without entropy=     -216.93640558  energy(sigma->0) =     -216.93717366

 writing wavefunctions