 vasp.6.2.0 18Jan21 (build Jan 05 2022 15:41:44) complex

 executed on             LinuxIFC date 2025.05.07  14:35:00

 INCAR:
   SYSTEM = routine with relax: pwdword
   ICHARG = 2
   NPAR = 6
   KPAR = 2
   NCORE = 2
   ADDGRID = T
   PREC = Acc
   ENCUT = 600
   METAGGA = R2SCAN
   LASPH = .TRUE.
   LMIXTAU = .FALSE.
   ALGO = A
   EDIFF = 1E-9
   NELM = 100
   NELMIN = 6
   IALGO = 38
   LREAL = F
   NSW = 0
   ISIF = -1
   ISMEAR = 0
   SIGMA = 0.02

 POTCAR:    PAW_PBE B 06Sep2000
 POTCAR:    PAW_PBE Mo_sv 02Feb2006
 POTCAR:    PAW_PBE Si 05Jan2001
|           W    W    AA    RRRRR   N    N  II  N    N   GGGG   !!!           |
|           W    W   A  A   R    R  NN   N  II  NN   N  G    G  !!!           |
|           W    W  A    A  R    R  N N  N  II  N N  N  G       !!!           |
|           W WW W  AAAAAA  RRRRR   N  N N  II  N  N N  G  GGG   !            |
|           WW  WW  A    A  R   R   N   NN  II  N   NN  G    G                |
|           W    W  A    A  R    R  N    N  II  N    N   GGGG   !!!           |
|     For optimal performance we recommend to set                             |
|       NCORE = 2 up to number-of-cores-per-socket                            |
|     This setting can greatly improve the performance of VASP for DFT.       |
|     The default, NCORE=1 might be grossly inefficient on modern             |
|     multi-core architectures or massively parallel machines. Do your        |
|     Unfortunately you need to use the default for GW and RPA                |
|     calculations (for HF NCORE is supported but not extensively tested      |
|     yet).                                                                   |

 POTCAR:    PAW_PBE B 06Sep2000
   VRHFIN =B: s2p1

   TITEL  = PAW_PBE B 06Sep2000
   POMASS =   10.811; ZVAL   =    3.000    mass and valenz
   ENMAX  =  318.614; ENMIN  =  238.960 eV

 POTCAR:    PAW_PBE Mo_sv 02Feb2006
   VRHFIN =Mo: 4p5s4d

   TITEL  = PAW_PBE Mo_sv 02Feb2006
   POMASS =   95.940; ZVAL   =   14.000    mass and valenz
   ENMAX  =  242.676; ENMIN  =  182.007 eV

 POTCAR:    PAW_PBE Si 05Jan2001
   VRHFIN =Si: s2p2

   TITEL  = PAW_PBE Si 05Jan2001
   POMASS =   28.085; ZVAL   =    4.000    mass and valenz
   ENMAX  =  245.345; ENMIN  =  184.009 eV

  PAW_PBE B 06Sep2000                   :
  PAW_PBE Mo_sv 02Feb2006               :
  PAW_PBE Si 05Jan2001                  :

 POSCAR: EA25
  positions in direct lattice

 METAGGA = R2SCA    LMAXTAU =  6    LMIXTAU =  F

 ion  position               nearest neighbor table
   1  0.185  0.315  0.500-  14 1.48   9 2.18   7 2.18
   2  0.815  0.685  0.500-  13 1.48   9 2.18   7 2.18
   3  0.315  0.815  0.129-  11 1.48   8 2.18   6 2.18
   4  0.685  0.185  0.871-  12 1.48   8 2.18   6 2.18
   5  0.500  0.500  0.000-  13 2.86  14 2.86  11 2.86  12 2.86   7 3.43   7 3.43   9 3.43   9 3.43
                             6 3.43   6 3.43   8 3.43   8 3.43
   6  0.500  0.000  0.000-   3 2.18   4 2.18  11 2.20  12 2.20   5 3.43  10 3.43   5 3.43  10 3.43

   7  0.000  0.000  0.500-   1 2.18   2 2.18  13 2.20  14 2.20   5 3.43   5 3.43  10 3.43  10 3.43

[...]

   9  0.500  0.500  0.500-   1 2.18   2 2.18  13 2.20  14 2.20  10 3.43  10 3.43   5 3.43   5 3.43

  10  0.000  0.000  0.000-  14 2.86  13 2.86  11 2.86  12 2.86   9 3.43   9 3.43   6 3.43   7 3.43
                             7 3.43   8 3.43   6 3.43   8 3.43
  11  0.180  0.680  0.859-   3 1.48   6 2.20   8 2.20   5 2.86  10 2.86
  12  0.820  0.320  0.141-   4 1.48   6 2.20   8 2.20   5 2.86  10 2.86
  13  0.680  0.820  0.500-   2 1.48   7 2.20   9 2.20  10 2.86   5 2.86
  14  0.320  0.180  0.500-   1 1.48   7 2.20   9 2.20   5 2.86  10 2.86

  Warning from LATTYP: Got some problem with cell dimensions!
  Tried to take original basis but could not verify dimensions!
  LATTYP: Found a base centered monoclinic cell.
 ALAT       =     8.2291234755
 B/A-ratio  =     1.3365816812
 C/A-ratio  =     0.8346168801
 COS(beta)  =    -0.5990609061

  Lattice vectors:

 A1 = (  -6.4107347502,   0.0000000000,   2.4649594018)
 A2 = (   3.0246662685,  -5.6523370389,   2.4649594018)
 A3 = (   3.3860684817,   5.6523370389,   1.9383811963)

Analysis of symmetry for initial positions (statically):
 Subroutine PRICEL returns:
 Original cell was already a primitive cell.

 Routine SETGRP: Setting up the symmetry group for a
 base centered monoclinic supercell.

 Subroutine GETGRP returns: Found  4 space group operations
 (whereof  2 operations were pure point group operations)
 out of a pool of  4 trial point group operations.

The static configuration has the point symmetry S_2 .
 The point group associated with its full space group is C_2h.

Analysis of symmetry for dynamics (positions and initial velocities):
 Subroutine PRICEL returns:
 Original cell was already a primitive cell.

 Routine SETGRP: Setting up the symmetry group for a
 base centered monoclinic supercell.

 Subroutine GETGRP returns: Found  4 space group operations
 (whereof  2 operations were pure point group operations)
 out of a pool of  4 trial point group operations.

The dynamic configuration has the point symmetry S_2 .
 The point group associated with its full space group is C_2h.

 Subroutine INISYM returns: Found  4 space group operations
 (whereof  2 operations are pure point group operations),
 and found     1 'primitive' translations

                                     Primitive cell

  volume of cell :     248.8772

  direct lattice vectors                    reciprocal lattice vectors
     6.410734750  0.000000000 -2.464959402     0.155988360  0.083472151  0.000000000
    -3.024666269  5.652337039 -2.464959402     0.000000000  0.176917971  0.000000000
     0.000000000  0.000000000  6.868300000     0.055982554  0.093451229  0.145596436

  length of vectors
     6.868300000  6.868300000  6.868300000     0.176917971  0.176917971  0.181839217

  position of ions in fractional coordinates (direct lattice)
     0.185410000  0.314590000  0.500000000
     0.814590000  0.685410000  0.500000000
     0.314590000  0.814590000  0.129190000
     0.685410000  0.185410000  0.870810000
     0.500000000  0.500000000  1.000000000
     0.500000000  0.000000000  0.000000000
     0.000000000  0.000000000  0.500000000
     0.000000000  0.500000000  1.000000000
     0.500000000  0.500000000  0.500000000
     0.000000000  0.000000000  0.000000000
     0.179640000  0.679640000  0.859280000
     0.820360000  0.320360000  0.140720000
     0.679640000  0.820360000  0.500000000
     0.320360000  0.179640000  0.500000000

  ion indices of the primitive-cell ions
   primitive index   ion index
                 1           1
                 2           2
                 3           3
                 4           4
                 5           5
                 6           6
                 7           7
                 8           8
                 9           9
                10          10
                11          11
                12          12
                13          13
                14          14

 KPOINTS: EA

Automatic generation of k-mesh.
 Grid dimensions read from file:
 generate k-points for:    6    6    7

 Generating k-lattice:

  Cartesian coordinates                     Fractional coordinates (reciprocal lattice)
     0.025998060  0.013912025  0.000000000     0.166666667  0.000000000  0.000000000
     0.000000000  0.029486328  0.000000000     0.000000000  0.166666667  0.000000000
     0.007997508  0.013350176  0.020799491    -0.000000000 -0.000000000  0.142857143

  Length of vectors
     0.029486328  0.029486328  0.025977031

  Shift w.r.t. Gamma in fractional coordinates (k-lattice)
     0.000000000  0.000000000  0.000000000

 Subroutine IBZKPT returns following result:

 Found     76 irreducible k-points:

 Following reciprocal coordinates:
            Coordinates               Weight
  0.000000  0.000000  0.000000      1.000000
  0.166667  0.000000  0.000000      4.000000
  0.333333  0.000000  0.000000      4.000000
  0.500000  0.000000  0.000000      2.000000
  0.166667  0.166667  0.000000      2.000000
  0.333333  0.166667  0.000000      4.000000
  0.500000  0.166667  0.000000      4.000000
 -0.333333  0.166667  0.000000      4.000000
 -0.166667  0.166667  0.000000      2.000000
  0.333333  0.333333  0.000000      2.000000
  0.500000  0.333333  0.000000      4.000000
 -0.333333  0.333333  0.000000      2.000000
  0.500000  0.500000  0.000000      1.000000
 -0.000000  0.000000  0.142857      2.000000
  0.166667  0.000000  0.142857      4.000000
  0.333333  0.000000  0.142857      4.000000
  0.500000  0.000000  0.142857      4.000000
 -0.333333  0.000000  0.142857      4.000000
 -0.166667  0.000000  0.142857      4.000000
  0.166667  0.166667  0.142857      2.000000
  0.333333  0.166667  0.142857      4.000000
  0.500000  0.166667  0.142857      4.000000
 -0.333333  0.166667  0.142857      4.000000
 -0.166667  0.166667  0.142857      4.000000
  0.333333  0.333333  0.142857      2.000000
  0.500000  0.333333  0.142857      4.000000
 -0.333333  0.333333  0.142857      4.000000
 -0.166667  0.333333  0.142857      4.000000
  0.500000  0.500000  0.142857      2.000000
 -0.333333  0.500000  0.142857      4.000000
 -0.166667  0.500000  0.142857      4.000000
 -0.333333 -0.333333  0.142857      2.000000
 -0.166667 -0.333333  0.142857      4.000000
 -0.166667 -0.166667  0.142857      2.000000
 -0.000000 -0.000000  0.285714      2.000000
  0.166667 -0.000000  0.285714      4.000000
  0.333333  0.000000  0.285714      4.000000
  0.500000 -0.000000  0.285714      4.000000
 -0.333333 -0.000000  0.285714      4.000000
 -0.166667  0.000000  0.285714      4.000000
  0.166667  0.166667  0.285714      2.000000
  0.333333  0.166667  0.285714      4.000000
  0.500000  0.166667  0.285714      4.000000
 -0.333333  0.166667  0.285714      4.000000
 -0.166667  0.166667  0.285714      4.000000
  0.333333  0.333333  0.285714      2.000000
  0.500000  0.333333  0.285714      4.000000
 -0.333333  0.333333  0.285714      4.000000
 -0.166667  0.333333  0.285714      4.000000
  0.500000  0.500000  0.285714      2.000000
 -0.333333  0.500000  0.285714      4.000000
 -0.166667  0.500000  0.285714      4.000000
 -0.333333 -0.333333  0.285714      2.000000
 -0.166667 -0.333333  0.285714      4.000000
 -0.166667 -0.166667  0.285714      2.000000
 -0.000000 -0.000000  0.428571      2.000000
  0.166667 -0.000000  0.428571      4.000000
  0.333333  0.000000  0.428571      4.000000
  0.500000 -0.000000  0.428571      4.000000
 -0.333333 -0.000000  0.428571      4.000000
 -0.166667 -0.000000  0.428571      4.000000
  0.166667  0.166667  0.428571      2.000000
  0.333333  0.166667  0.428571      4.000000
  0.500000  0.166667  0.428571      4.000000
 -0.333333  0.166667  0.428571      4.000000
 -0.166667  0.166667  0.428571      4.000000
  0.333333  0.333333  0.428571      2.000000
  0.500000  0.333333  0.428571      4.000000
 -0.333333  0.333333  0.428571      4.000000
 -0.166667  0.333333  0.428571      4.000000
  0.500000  0.500000  0.428571      2.000000
 -0.333333  0.500000  0.428571      4.000000
 -0.166667  0.500000  0.428571      4.000000
 -0.333333 -0.333333  0.428571      2.000000
[...]
   0.50000000  0.33333333  0.28571429       0.016
  -0.33333333  0.33333333  0.28571429       0.016
  -0.16666667  0.33333333  0.28571429       0.016
   0.50000000  0.50000000  0.28571429       0.008
  -0.33333333  0.50000000  0.28571429       0.016
  -0.16666667  0.50000000  0.28571429       0.016
  -0.33333333 -0.33333333  0.28571429       0.008
  -0.16666667 -0.33333333  0.28571429       0.016
  -0.16666667 -0.16666667  0.28571429       0.008
  -0.00000000 -0.00000000  0.42857143       0.008
   0.16666667 -0.00000000  0.42857143       0.016
   0.33333333  0.00000000  0.42857143       0.016
   0.50000000 -0.00000000  0.42857143       0.016
  -0.33333333 -0.00000000  0.42857143       0.016
  -0.16666667 -0.00000000  0.42857143       0.016
   0.16666667  0.16666667  0.42857143       0.008
   0.33333333  0.16666667  0.42857143       0.016
   0.50000000  0.16666667  0.42857143       0.016
  -0.33333333  0.16666667  0.42857143       0.016
  -0.16666667  0.16666667  0.42857143       0.016
   0.33333333  0.33333333  0.42857143       0.008
   0.50000000  0.33333333  0.42857143       0.016
  -0.33333333  0.33333333  0.42857143       0.016
  -0.16666667  0.33333333  0.42857143       0.016
   0.50000000  0.50000000  0.42857143       0.008
  -0.33333333  0.50000000  0.42857143       0.016
  -0.16666667  0.50000000  0.42857143       0.016
  -0.33333333 -0.33333333  0.42857143       0.008
  -0.16666667 -0.33333333  0.42857143       0.016
  -0.16666667 -0.16666667  0.42857143       0.008

 position of ions in fractional coordinates (direct lattice)
   0.18541000  0.31459000  0.50000000
   0.81459000  0.68541000  0.50000000
   0.31459000  0.81459000  0.12919000
   0.68541000  0.18541000  0.87081000
   0.50000000  0.50000000  0.00000000
   0.50000000  0.00000000  0.00000000
   0.00000000  0.00000000  0.50000000
   0.00000000  0.50000000  0.00000000
   0.50000000  0.50000000  0.50000000
   0.00000000  0.00000000  0.00000000
   0.17964000  0.67964000  0.85928000
   0.82036000  0.32036000  0.14072000
   0.67964000  0.82036000  0.50000000
   0.32036000  0.17964000  0.50000000

 position of ions in cartesian coordinates  (Angst):
   0.23708457  1.77816871  2.20167030
   3.14898391  3.87416833 -0.26328910
  -0.44710985  4.60433723 -1.89606718
   3.83317833  1.04799981  3.83444838
   1.69303424  2.82616852 -2.46495940
   3.20536738  0.00000000 -1.23247970
   0.00000000  0.00000000  3.43415000
  -1.51233313  2.82616852 -1.23247970
   1.69303424  2.82616852  0.96919060
   0.00000000  0.00000000  0.00000000
  -0.90405979  3.84155435  3.78370251
   4.29012827  1.81078269 -1.84532131
   1.87567655  4.63695121 -0.26328910
   1.51039194  1.01538583  2.20167030

 k-point   1 :   0.0000 0.0000 0.0000  plane waves:    8309
 k-point   2 :   0.1667 0.0000 0.0000  plane waves:    8316
 k-point   3 :   0.3333 0.0000 0.0000  plane waves:    8326
 k-point   4 :   0.5000 0.0000 0.0000  plane waves:    8302
 k-point   5 :   0.1667 0.1667 0.0000  plane waves:    8313
 k-point   6 :   0.3333 0.1667 0.0000  plane waves:    8304
 k-point   7 :   0.5000 0.1667 0.0000  plane waves:    8309
 k-point   8 :  -0.3333 0.1667 0.0000  plane waves:    8317
 k-point   9 :  -0.1667 0.1667 0.0000  plane waves:    8322
 k-point  10 :   0.3333 0.3333 0.0000  plane waves:    8294
 k-point  11 :   0.5000 0.3333 0.0000  plane waves:    8298
 k-point  12 :  -0.3333 0.3333 0.0000  plane waves:    8302
 k-point  13 :   0.5000 0.5000 0.0000  plane waves:    8266
 k-point  14 :  -0.0000 0.0000 0.1429  plane waves:    8314
 k-point  15 :   0.1667 0.0000 0.1429  plane waves:    8314
 k-point  16 :   0.3333 0.0000 0.1429  plane waves:    8314
 k-point  17 :   0.5000 0.0000 0.1429  plane waves:    8299
 k-point  18 :  -0.3333 0.0000 0.1429  plane waves:    8312
 k-point  19 :  -0.1667 0.0000 0.1429  plane waves:    8308
 k-point  20 :   0.1667 0.1667 0.1429  plane waves:    8312
 k-point  21 :   0.3333 0.1667 0.1429  plane waves:    8290
 k-point  22 :   0.5000 0.1667 0.1429  plane waves:    8303
 k-point  23 :  -0.3333 0.1667 0.1429  plane waves:    8310
 k-point  24 :  -0.1667 0.1667 0.1429  plane waves:    8335
 k-point  25 :   0.3333 0.3333 0.1429  plane waves:    8282
 k-point  26 :   0.5000 0.3333 0.1429  plane waves:    8297
 k-point  27 :  -0.3333 0.3333 0.1429  plane waves:    8307
 k-point  28 :  -0.1667 0.3333 0.1429  plane waves:    8314
 k-point  29 :   0.5000 0.5000 0.1429  plane waves:    8296
 k-point  30 :  -0.3333 0.5000 0.1429  plane waves:    8303
 k-point  31 :  -0.1667 0.5000 0.1429  plane waves:    8302
 k-point  32 :  -0.3333-0.3333 0.1429  plane waves:    8304
 k-point  33 :  -0.1667-0.3333 0.1429  plane waves:    8308
 k-point  34 :  -0.1667-0.1667 0.1429  plane waves:    8312
 k-point  35 :  -0.0000-0.0000 0.2857  plane waves:    8320
 k-point  36 :   0.1667-0.0000 0.2857  plane waves:    8300
 k-point  37 :   0.3333 0.0000 0.2857  plane waves:    8291
 k-point  38 :   0.5000-0.0000 0.2857  plane waves:    8298
 k-point  39 :  -0.3333-0.0000 0.2857  plane waves:    8320
 k-point  40 :  -0.1667 0.0000 0.2857  plane waves:    8317
 k-point  41 :   0.1667 0.1667 0.2857  plane waves:    8296
 k-point  42 :   0.3333 0.1667 0.2857  plane waves:    8299
 k-point  43 :   0.5000 0.1667 0.2857  plane waves:    8294
 k-point  44 :  -0.3333 0.1667 0.2857  plane waves:    8311
 k-point  45 :  -0.1667 0.1667 0.2857  plane waves:    8308
 k-point  46 :   0.3333 0.3333 0.2857  plane waves:    8283
 k-point  47 :   0.5000 0.3333 0.2857  plane waves:    8299
 k-point  48 :  -0.3333 0.3333 0.2857  plane waves:    8300
 k-point  49 :  -0.1667 0.3333 0.2857  plane waves:    8308
 k-point  50 :   0.5000 0.5000 0.2857  plane waves:    8298
 k-point  51 :  -0.3333 0.5000 0.2857  plane waves:    8313
 k-point  52 :  -0.1667 0.5000 0.2857  plane waves:    8297
 k-point  53 :  -0.3333-0.3333 0.2857  plane waves:    8281
 k-point  54 :  -0.1667-0.3333 0.2857  plane waves:    8301
 k-point  55 :  -0.1667-0.1667 0.2857  plane waves:    8305
 k-point  56 :  -0.0000-0.0000 0.4286  plane waves:    8274
 k-point  57 :   0.1667-0.0000 0.4286  plane waves:    8285
 k-point  58 :   0.3333 0.0000 0.4286  plane waves:    8305
 k-point  59 :   0.5000-0.0000 0.4286  plane waves:    8311
 k-point  60 :  -0.3333-0.0000 0.4286  plane waves:    8308
 k-point  61 :  -0.1667-0.0000 0.4286  plane waves:    8307
 k-point  62 :   0.1667 0.1667 0.4286  plane waves:    8297
 k-point  63 :   0.3333 0.1667 0.4286  plane waves:    8300
 k-point  64 :   0.5000 0.1667 0.4286  plane waves:    8312
 k-point  65 :  -0.3333 0.1667 0.4286  plane waves:    8307
 k-point  66 :  -0.1667 0.1667 0.4286  plane waves:    8300
 k-point  67 :   0.3333 0.3333 0.4286  plane waves:    8298
 k-point  68 :   0.5000 0.3333 0.4286  plane waves:    8316
 k-point  69 :  -0.3333 0.3333 0.4286  plane waves:    8318
 k-point  70 :  -0.1667 0.3333 0.4286  plane waves:    8315
 k-point  71 :   0.5000 0.5000 0.4286  plane waves:    8336
 k-point  72 :  -0.3333 0.5000 0.4286  plane waves:    8315
 k-point  73 :  -0.1667 0.5000 0.4286  plane waves:    8292
 k-point  74 :  -0.3333-0.3333 0.4286  plane waves:    8288
 k-point  75 :  -0.1667-0.3333 0.4286  plane waves:    8302
 k-point  76 :  -0.1667-0.1667 0.4286  plane waves:    8307

 maximum and minimum number of plane-waves per node :      4180     4121

 maximum number of plane-waves:      8336
 maximum index in each direction:
   IXMAX=   14   IYMAX=   14   IZMAX=   13
   IXMIN=  -14   IYMIN=  -14   IZMIN=  -14

 parallel 3D FFT for wavefunctions:
    minimum data exchange during FFTs selected (reduces bandwidth)
 parallel 3D FFT for charge:
    minimum data exchange during FFTs selected (reduces bandwidth)

 Broyden mixing: mesh for mixing (old mesh)
   NGX = 27   NGY = 27   NGZ = 27
  (NGX  =112   NGY  =112   NGZ  =112)
  gives a total of  19683 points

 initial charge density was supplied:
 charge density of overlapping atoms calculated
 number of electron     112.0000000 magnetization
 keeping initial charge density in first step

 Maximum index for augmentation-charges        21318 (set IRDMAX)

 First call to EWALD:  gamma=   0.282
 Maximum number of real-space cells 3x 3x 3
 Maximum number of reciprocal cells 3x 3x 3

--------------------------------------- Iteration      1(   1)  ---------------------------------------

 eigenvalue-minimisations  : 11856
 total energy-change (2. order) : 0.1019939E+04  (-0.7214935E+04)
 number of electron     112.0000000 magnetization
 augmentation part      112.0000000 magnetization

 Free energy of the ion-electron system (eV)
  alpha Z        PSCENC =       411.85452820
  Ewald energy   TEWEN  =     -8197.68455143
  -Hartree energ DENC   =     -3292.26089175
  -exchange      EXHF   =         0.00000000
  -V(xc)+E(xc)   XCENC  =       468.43842004
  PAW double counting   =      9416.99506030    -9355.19475361
  entropy T*S    EENTRO =        -0.00088369
  eigenvalues    EBANDS =      -302.84802452
  atomic energy  EATOM  =     11870.63976582
  free energy    TOTEN  =      1019.93866936 eV

  energy without entropy =     1019.93955305  energy(sigma->0) =     1019.93911121

[...]

 eigenvalue-minimisations  : 12228
 total energy-change (2. order) :-0.1206375E+04  (-0.1171586E+04)
 number of electron     112.0000000 magnetization
 augmentation part      112.0000000 magnetization

[...]

 eigenvalue-minimisations  :     0
 total energy-change (2. order) :-0.1323951E-06  ( 0.5215869E-07)
 number of electron     112.0000001 magnetization
 augmentation part       13.7455928 magnetization

[...]

 eigenvalue-minimisations  :     0
 total energy-change (2. order) :-0.4651156E-08  (-0.9182780E-10)
 number of electron     112.0000001 magnetization
 augmentation part       13.7456006 magnetization

[...]

--------------------------------------- Iteration      1(  48)  ---------------------------------------

 eigenvalue-minimisations  :     0
 total energy-change (2. order) : 0.1818989E-10  (-0.5538158E-10)
 number of electron     112.0000001 magnetization
 augmentation part       13.7456005 magnetization

 Free energy of the ion-electron system (eV)
  alpha Z        PSCENC =       411.85452820
  Ewald energy   TEWEN  =     -8197.68455143
  -Hartree energ DENC   =     -3184.00129457
  -exchange      EXHF   =         0.00000000
  -V(xc)+E(xc)   XCENC  =       479.33935251
  PAW double counting   =     15901.18120671   -15855.19048643
  entropy T*S    EENTRO =        -0.00373906
  eigenvalues    EBANDS =     -1609.47170640
  atomic energy  EATOM  =     11870.63976582
  free energy    TOTEN  =      -183.33692464 eV

  energy without entropy =     -183.33318559  energy(sigma->0) =     -183.33505511

  average scaling for gradient   1.1162

 average (electrostatic) potential at core
  the test charge radii are     0.7672  1.0818  0.9892
  (the norm of the test charge is              1.0000)
       1 -28.0843       2 -28.0843       3 -28.0827       4 -28.0827       5 -81.2226
       6 -80.3807       7 -80.3776       8 -80.3778       9 -80.3776      10 -81.2226
      11 -85.7179      12 -85.7179      13 -85.7212      14 -85.7212

 E-fermi :   6.3286     XC(G=0): -11.2779     alpha+bet :-13.1712

 Fermi energy:         6.3285554893

 k-point     1 :       0.0000    0.0000    0.0000
  band No.  band energies     occupation
      1     -57.1309      2.00000
      2     -57.1304      2.00000
      3     -56.4667      2.00000
      4     -56.4641      2.00000
      5     -56.4631      2.00000
      6     -56.4629      2.00000
      7     -30.4597      2.00000
      8     -30.4591      2.00000
      9     -30.4482      2.00000
     10     -30.4475      2.00000
     11     -30.3964      2.00000
     12     -30.3865      2.00000
     13     -30.1839      2.00000
     14     -30.1835      2.00000
     15     -30.1633      2.00000
     16     -30.1569      2.00000
     17     -29.8609      2.00000
     18     -29.8521      2.00000
     19     -29.8485      2.00000
     20     -29.8367      2.00000
     21     -29.7721      2.00000
     22     -29.7630      2.00000
     23     -29.7628      2.00000
     24     -29.7560      2.00000
     25      -6.2883      2.00000
     26      -5.4145      2.00000
     27      -3.8280      2.00000
     28      -3.8277      2.00000
     29      -1.0558      2.00000
     30      -0.2875      2.00000
     31       0.4635      2.00000
     32       0.4640      2.00000
     33       1.3031      2.00000
     34       1.3032      2.00000
     35       1.3488      2.00000
     36       1.5515      2.00000
     37       2.7526      2.00000
     38       3.1835      2.00000
     39       3.2604      2.00000
     40       3.2615      2.00000
     41       3.3766      2.00000
     42       4.0830      2.00000
     43       4.0837      2.00000
     44       4.5094      2.00000
     45       4.5431      2.00000
     46       4.5437      2.00000
     47       4.8675      2.00000
     48       4.8678      2.00000
     49       5.3379      2.00000
     50       5.3555      2.00000
     51       5.3560      2.00000
     52       5.4944      2.00000
     53       5.7748      2.00000
     54       5.7748      2.00000
     55       6.0029      2.00000
     56       6.0136      2.00000
     57       6.2072      2.00000
     58       6.2469      2.00000
     59       6.5318      0.00000
     60       6.6081      0.00000
     61       6.6734      0.00000
     62       7.2424      0.00000
     63       7.2979      0.00000
     64       7.2991      0.00000
     65       7.3177      0.00000
     66       7.6257      0.00000
     67       7.6260      0.00000
     68       7.6872      0.00000
     69       7.8230      0.00000
     70       8.8859      0.00000
     71       9.7618      0.00000
     72      10.5650      0.00000

[...]

 k-point    76 :      -0.1667   -0.1667    0.4286
  band No.  band energies     occupation
      1     -57.1308      2.00000
      2     -57.1305      2.00000
      3     -56.4665      2.00000
      4     -56.4640      2.00000
      5     -56.4632      2.00000
      6     -56.4632      2.00000
      7     -30.4545      2.00000
      8     -30.4486      2.00000
      9     -30.4465      2.00000
     10     -30.4456      2.00000
     11     -30.3903      2.00000
     12     -30.3855      2.00000
     13     -30.1859      2.00000
     14     -30.1797      2.00000
     15     -30.1718      2.00000
     16     -30.1691      2.00000
     17     -29.8576      2.00000
     18     -29.8514      2.00000
     19     -29.8480      2.00000
     20     -29.8406      2.00000
     21     -29.7726      2.00000
     22     -29.7668      2.00000
     23     -29.7648      2.00000
     24     -29.7599      2.00000
     25      -5.8033      2.00000
     26      -5.1701      2.00000
     27      -4.5893      2.00000
     28      -4.5161      2.00000
     29      -0.4725      2.00000
     30       0.2713      2.00000
     31       0.6179      2.00000
     32       1.0382      2.00000
     33       1.3326      2.00000
     34       1.4940      2.00000
     35       1.5939      2.00000
     36       1.6792      2.00000
     37       2.0298      2.00000
     38       2.4837      2.00000
     39       3.0389      2.00000
     40       3.5878      2.00000
     41       3.8048      2.00000
     42       3.8250      2.00000
     43       3.9635      2.00000
     44       4.0277      2.00000
     45       4.0797      2.00000
     46       4.3283      2.00000
     47       4.4647      2.00000
     48       4.6578      2.00000
     49       4.9711      2.00000
     50       5.0709      2.00000
     51       5.2271      2.00000
     52       5.6139      2.00000
     53       5.9261      2.00000
     54       6.0359      2.00000
     55       6.2417      2.00000
     56       6.3975      0.00000
     57       6.4426      0.00000
     58       6.4927      0.00000
     59       6.7645      0.00000
     60       6.8341      0.00000
     61       6.9036      0.00000
     62       6.9362      0.00000
     63       7.1460      0.00000
     64       7.2335      0.00000
     65       7.3742      0.00000
     66       7.5393      0.00000
     67       7.9538      0.00000
     68       7.9549      0.00000
     69       8.2167      0.00000
     70       8.9412      0.00000
     71       8.9766      0.00000
     72       9.5203      0.00000

 soft charge-density along one line, spin component           1
         0         1         2         3         4         5         6         7         8         9
 total charge-density along one line

------------------------ aborting loop because EDIFF is reached ----------------------------------------

  FREE ENERGIE OF THE ION-ELECTRON SYSTEM (eV)
  free  energy   TOTEN  =      -183.33692464 eV

  energy  without entropy=     -183.33318559  energy(sigma->0) =     -183.33505511

 writing wavefunctions