 vasp.6.2.0 18Jan21 (build Jan 05 2022 15:41:44) complex

 executed on             LinuxIFC date 2025.05.07  15:23:04

 INCAR:
   SYSTEM = routine with relax: pwdword
   ICHARG = 2
   NPAR = 6
   KPAR = 2
   NCORE = 2
   ADDGRID = T
   PREC = Acc
   ENCUT = 600
   METAGGA = R2SCAN
   LASPH = .TRUE.
   LMIXTAU = .FALSE.
   ALGO = A
   EDIFF = 1E-9
   NELM = 100
   NELMIN = 6
   IALGO = 38
   LREAL = F
   NSW = 0
   ISIF = -1
   ISMEAR = 0
   SIGMA = 0.02

 POTCAR:    PAW_PBE B 06Sep2000
 POTCAR:    PAW_PBE Mo_sv 02Feb2006
 POTCAR:    PAW_PBE Si 05Jan2001
|           W    W    AA    RRRRR   N    N  II  N    N   GGGG   !!!           |
|           W    W   A  A   R    R  NN   N  II  NN   N  G    G  !!!           |
|           W    W  A    A  R    R  N N  N  II  N N  N  G       !!!           |
|           W WW W  AAAAAA  RRRRR   N  N N  II  N  N N  G  GGG   !            |
|           WW  WW  A    A  R   R   N   NN  II  N   NN  G    G                |
|           W    W  A    A  R    R  N    N  II  N    N   GGGG   !!!           |
|     For optimal performance we recommend to set                             |
|       NCORE = 2 up to number-of-cores-per-socket                            |
|     This setting can greatly improve the performance of VASP for DFT.       |
|     The default, NCORE=1 might be grossly inefficient on modern             |
|     multi-core architectures or massively parallel machines. Do your        |
|     Unfortunately you need to use the default for GW and RPA                |
|     calculations (for HF NCORE is supported but not extensively tested      |
|     yet).                                                                   |

 POTCAR:    PAW_PBE B 06Sep2000
   VRHFIN =B: s2p1

   TITEL  = PAW_PBE B 06Sep2000
   POMASS =   10.811; ZVAL   =    3.000    mass and valenz
   ENMAX  =  318.614; ENMIN  =  238.960 eV

 POTCAR:    PAW_PBE Mo_sv 02Feb2006
   VRHFIN =Mo: 4p5s4d

   TITEL  = PAW_PBE Mo_sv 02Feb2006
   POMASS =   95.940; ZVAL   =   14.000    mass and valenz
   ENMAX  =  242.676; ENMIN  =  182.007 eV

 POTCAR:    PAW_PBE Si 05Jan2001
   VRHFIN =Si: s2p2

   TITEL  = PAW_PBE Si 05Jan2001
   POMASS =   28.085; ZVAL   =    4.000    mass and valenz
   ENMAX  =  245.345; ENMIN  =  184.009 eV

  PAW_PBE B 06Sep2000                   :
  PAW_PBE Mo_sv 02Feb2006               :
  PAW_PBE Si 05Jan2001                  :

 POSCAR: EA46
  positions in direct lattice

 METAGGA = R2SCA    LMAXTAU =  6    LMIXTAU =  F

 ion  position               nearest neighbor table
   1  0.537  0.249  0.786-  13 1.77   8 2.09  12 2.65  10 2.65   9 2.66  11 2.66
   2  0.463  0.751  0.214-  13 1.77   7 2.09  10 2.65  12 2.65  11 2.66   9 2.66
   3  0.249  0.463  0.712-  13 1.77   6 2.09  10 2.65  12 2.65   9 2.66  11 2.66
   4  0.751  0.537  0.288-  13 1.77   5 2.09  12 2.65  10 2.65  11 2.66   9 2.66
   5  0.963  0.749  0.712-  14 1.77   4 2.09  10 2.65  12 2.65  11 2.66   9 2.66
   6  0.037  0.251  0.288-  14 1.77   3 2.09  12 2.65  10 2.65   9 2.66  11 2.66
   7  0.251  0.963  0.214-  14 1.77   2 2.09  10 2.65  12 2.65   9 2.66  11 2.66
   8  0.749  0.037  0.786-  14 1.77   1 2.09  12 2.65  10 2.65  11 2.66   9 2.66
   9  0.250  0.250  0.000-  13 1.99  14 1.99   1 2.66   7 2.66   6 2.66   3 2.66   2 2.66   8 2.66
                             5 2.66   4 2.66  10 3.49  10 3.49  12 3.49  12 3.49
  10  0.250  0.750  0.500-   2 2.65   7 2.65   5 2.65   3 2.65   6 2.65   4 2.65   8 2.65   1 2.65
                             9 3.49   9 3.49  11 3.49  11 3.49
  11  0.750  0.750  0.000-  13 1.99  14 1.99   8 2.66   2 2.66   5 2.66   4 2.66   7 2.66   1 2.66
                             6 2.66   3 2.66  12 3.49  12 3.49  10 3.49  10 3.49
  12  0.750  0.250  0.500-   1 2.65   8 2.65   6 2.65   4 2.65   5 2.65   3 2.65   2 2.65   7 2.65
                            11 3.49  11 3.49   9 3.49   9 3.49
  13  0.500  0.500  0.000-   1 1.77   2 1.77   3 1.77   4 1.77   9 1.99  11 1.99
  14  0.000  0.000  0.000-   7 1.77   8 1.77   5 1.77   6 1.77   9 1.99  11 1.99

  LATTYP: Found a body centered tetragonal cell.
 ALAT       =     6.9834445121
 C/A-ratio  =     1.1381932490

  Lattice vectors:

 A1 = (   5.8283686629,   0.0000000000,  -2.4917830708)
 A2 = (  -2.5390374288,   5.2462529681,  -2.4917830708)
 A3 = (   0.0000000000,   0.0000000000,   6.3386800000)

Analysis of symmetry for initial positions (statically):
 Subroutine PRICEL returns:
 Original cell was already a primitive cell.

 Routine SETGRP: Setting up the symmetry group for a
 body centered tetragonal supercell.

 Subroutine GETGRP returns: Found 16 space group operations
 (whereof  8 operations were pure point group operations)
 out of a pool of 16 trial point group operations.

The static configuration has the point symmetry C_4h.
 The point group associated with its full space group is D_4h.

Analysis of symmetry for dynamics (positions and initial velocities):
 Subroutine PRICEL returns:
 Original cell was already a primitive cell.

 Routine SETGRP: Setting up the symmetry group for a
 body centered tetragonal supercell.

 Subroutine GETGRP returns: Found 16 space group operations
 (whereof  8 operations were pure point group operations)
 out of a pool of 16 trial point group operations.

The dynamic configuration has the point symmetry C_4h.
 The point group associated with its full space group is D_4h.

 Subroutine INISYM returns: Found 16 space group operations
 (whereof  8 operations are pure point group operations),
 and found     1 'primitive' translations

                                     Primitive cell

  volume of cell :     193.8184

  direct lattice vectors                    reciprocal lattice vectors
     5.828368663  0.000000000 -2.491783071     0.171574596  0.083037231  0.000000000
    -2.539037429  5.246252968 -2.491783071     0.000000000  0.190612234  0.000000000
     0.000000000  0.000000000  6.338680000     0.067447272  0.107573676  0.157761553

  length of vectors
     6.338680000  6.338680000  6.338680000     0.190612234  0.190612234  0.202509105

  position of ions in fractional coordinates (direct lattice)
     0.537150000  0.248690000  0.785840000
     0.462850000  0.751310000  0.214160000
     0.248690000  0.462850000  0.711540000
     0.751310000  0.537150000  0.288460000
     0.962850000  0.748690000  0.711540000
     0.037150000  0.251310000  0.288460000
     0.251310000  0.962850000  0.214160000
     0.748690000  0.037150000  0.785840000
     0.250000000  0.250000000  1.000000000
     0.250000000  0.750000000  0.500000000
     0.750000000  0.750000000  1.000000000
     0.750000000  0.250000000  0.500000000
     0.500000000  0.500000000  1.000000000
     0.000000000  0.000000000  0.000000000

  ion indices of the primitive-cell ions
   primitive index   ion index
                 1           1
                 2           2
                 3           3
                 4           4
                 5           5
                 6           6
                 7           7
                 8           8
                 9           9
                10          10
                11          11
                12          12
                13          13
                14          14

 KPOINTS: EA

Automatic generation of k-mesh.
 Grid dimensions read from file:
 generate k-points for:    7    7    7

 Generating k-lattice:

  Cartesian coordinates                     Fractional coordinates (reciprocal lattice)
     0.024510657  0.011862462  0.000000000     0.142857143  0.000000000  0.000000000
     0.000000000  0.027230319  0.000000000     0.000000000  0.142857143  0.000000000
     0.009635325  0.015367668  0.022537365    -0.000000000 -0.000000000  0.142857143

  Length of vectors
     0.027230319  0.027230319  0.028929872

  Shift w.r.t. Gamma in fractional coordinates (k-lattice)
     0.000000000  0.000000000  0.000000000

 Subroutine IBZKPT returns following result:

 Found     40 irreducible k-points:

 Following reciprocal coordinates:
            Coordinates               Weight
  0.000000  0.000000  0.000000      1.000000
  0.142857  0.000000  0.000000      8.000000
  0.285714  0.000000  0.000000      8.000000
  0.428571  0.000000  0.000000      8.000000
  0.142857  0.142857  0.000000      8.000000
  0.285714  0.142857  0.000000     16.000000
  0.428571  0.142857  0.000000     16.000000
 -0.428571  0.142857  0.000000     16.000000
 -0.285714  0.142857  0.000000     16.000000
 -0.142857  0.142857  0.000000      4.000000
  0.285714  0.285714  0.000000      8.000000
  0.428571  0.285714  0.000000     16.000000
 -0.428571  0.285714  0.000000     16.000000
 -0.285714  0.285714  0.000000      4.000000
  0.428571  0.428571  0.000000      8.000000
 -0.428571  0.428571  0.000000      4.000000
  0.142857  0.142857  0.142857      8.000000
  0.285714  0.142857  0.142857     16.000000
 -0.142857  0.142857  0.142857      4.000000
  0.285714  0.285714  0.142857      8.000000
  0.428571  0.285714  0.142857      8.000000
 -0.285714  0.285714  0.142857      8.000000
 -0.142857  0.285714  0.142857      8.000000
 -0.428571  0.428571  0.142857      8.000000
 -0.285714  0.428571  0.142857     16.000000
 -0.142857  0.428571  0.142857      8.000000
 -0.428571 -0.428571  0.142857      8.000000
 -0.285714 -0.428571  0.142857     16.000000
 -0.142857 -0.428571  0.142857      8.000000
 -0.285714 -0.285714  0.142857      8.000000
 -0.142857 -0.285714  0.142857      8.000000
 -0.142857 -0.142857  0.142857      2.000000
 -0.285714  0.285714  0.285714      4.000000
 -0.428571  0.428571  0.285714      8.000000
 -0.285714  0.428571  0.285714      8.000000
 -0.428571 -0.428571  0.285714      8.000000
 -0.285714 -0.428571  0.285714      8.000000
 -0.285714 -0.285714  0.285714      2.000000
 -0.428571  0.428571  0.428571      4.000000
 -0.428571 -0.428571  0.428571      2.000000

 Following cartesian coordinates:
            Coordinates               Weight
  0.000000  0.000000  0.000000      1.000000
  0.024511  0.011862  0.000000      8.000000
  0.049021  0.023725  0.000000      8.000000
  0.073532  0.035587  0.000000      8.000000
  0.024511  0.039093  0.000000      8.000000
  0.049021  0.050955  0.000000     16.000000
  0.073532  0.062818  0.000000     16.000000
 -0.073532 -0.008357  0.000000     16.000000
 -0.049021  0.003505  0.000000     16.000000
 -0.024511  0.015368  0.000000      4.000000
  0.049021  0.078186  0.000000      8.000000
  0.073532  0.090048  0.000000     16.000000
 -0.073532  0.018873  0.000000     16.000000
 -0.049021  0.030736  0.000000      4.000000
  0.073532  0.117278  0.000000      8.000000
 -0.073532  0.046104  0.000000      4.000000
  0.034146  0.054460  0.022537      8.000000
  0.058657  0.066323  0.022537     16.000000
 -0.014875  0.030736  0.022537      4.000000
  0.058657  0.093553  0.022537      8.000000
  0.083167  0.105416  0.022537      8.000000
 -0.039386  0.046103  0.022537      8.000000
 -0.014875  0.057966  0.022537      8.000000
 -0.063897  0.061471  0.022537      8.000000
 -0.039386  0.073334  0.022537     16.000000
 -0.014875  0.085196  0.022537      8.000000
 -0.063897 -0.101911  0.022537      8.000000
 -0.039386 -0.090048  0.022537     16.000000
[...]
 use of overlap-Matrix (Vanderbilt PP)
 Gauss-broadening in eV      SIGMA  =   0.02

  energy-cutoff  :      600.00
  volume of cell :      193.82
      direct lattice vectors                 reciprocal lattice vectors
     5.828368663  0.000000000 -2.491783071     0.171574596  0.083037231  0.000000000
    -2.539037429  5.246252968 -2.491783071     0.000000000  0.190612234  0.000000000
     0.000000000  0.000000000  6.338680000     0.067447272  0.107573676  0.157761553

  length of vectors
     6.338680000  6.338680000  6.338680000     0.190612234  0.190612234  0.202509105

 k-points in units of 2pi/SCALE and weight: EA
   0.00000000  0.00000000  0.00000000       0.003
   0.02451066  0.01186246  0.00000000       0.023
   0.04902131  0.02372492  0.00000000       0.023
   0.07353197  0.03558738  0.00000000       0.023
   0.02451066  0.03909278  0.00000000       0.023
   0.04902131  0.05095524  0.00000000       0.047
   0.07353197  0.06281770  0.00000000       0.047
  -0.07353197 -0.00835707  0.00000000       0.047
  -0.04902131  0.00350540  0.00000000       0.047
  -0.02451066  0.01536786  0.00000000       0.012
   0.04902131  0.07818556  0.00000000       0.023
   0.07353197  0.09004802  0.00000000       0.047
  -0.07353197  0.01887325  0.00000000       0.047
  -0.04902131  0.03073572  0.00000000       0.012
   0.07353197  0.11727834  0.00000000       0.023
  -0.07353197  0.04610357  0.00000000       0.012
   0.03414598  0.05446045  0.02253736       0.023
   0.05865664  0.06632291  0.02253736       0.047
  -0.01487533  0.03073553  0.02253736       0.012
   0.05865664  0.09355323  0.02253736       0.023
   0.08316729  0.10541569  0.02253736       0.023
  -0.03938599  0.04610338  0.02253736       0.023
  -0.01487533  0.05796584  0.02253736       0.023
  -0.06389665  0.06147124  0.02253736       0.023
  -0.03938599  0.07333370  0.02253736       0.047
  -0.01487533  0.08519616  0.02253736       0.023
  -0.06389665 -0.10191067  0.02253736       0.023
  -0.03938599 -0.09004821  0.02253736       0.047
  -0.01487533 -0.07818575  0.02253736       0.023
  -0.03938599 -0.06281789  0.02253736       0.023
  -0.01487533 -0.05095543  0.02253736       0.023
  -0.01487533 -0.02372511  0.02253736       0.006
  -0.02975066  0.06147105  0.04507473       0.012
  -0.05426132  0.07683891  0.04507473       0.023
  -0.02975066  0.08870137  0.04507473       0.023
  -0.05426132 -0.08654301  0.04507473       0.023
  -0.02975066 -0.07468054  0.04507473       0.023
  -0.02975066 -0.04745023  0.04507473       0.006
  -0.04462600  0.09220658  0.06761209       0.012
  -0.04462600 -0.07117534  0.06761209       0.006

 k-points in reciprocal lattice and weights: EA
   0.00000000  0.00000000  0.00000000       0.003
   0.14285714  0.00000000  0.00000000       0.023
   0.28571429  0.00000000  0.00000000       0.023
   0.42857143  0.00000000  0.00000000       0.023
   0.14285714  0.14285714  0.00000000       0.023
   0.28571429  0.14285714  0.00000000       0.047
   0.42857143  0.14285714  0.00000000       0.047
  -0.42857143  0.14285714  0.00000000       0.047
  -0.28571429  0.14285714  0.00000000       0.047
  -0.14285714  0.14285714  0.00000000       0.012
   0.28571429  0.28571429  0.00000000       0.023
   0.42857143  0.28571429  0.00000000       0.047
  -0.42857143  0.28571429  0.00000000       0.047
  -0.28571429  0.28571429  0.00000000       0.012
   0.42857143  0.42857143  0.00000000       0.023
  -0.42857143  0.42857143  0.00000000       0.012
   0.14285714  0.14285714  0.14285714       0.023
   0.28571429  0.14285714  0.14285714       0.047
  -0.14285714  0.14285714  0.14285714       0.012
   0.28571429  0.28571429  0.14285714       0.023
   0.42857143  0.28571429  0.14285714       0.023
  -0.28571429  0.28571429  0.14285714       0.023
  -0.14285714  0.28571429  0.14285714       0.023
  -0.42857143  0.42857143  0.14285714       0.023
  -0.28571429  0.42857143  0.14285714       0.047
  -0.14285714  0.42857143  0.14285714       0.023
  -0.42857143 -0.42857143  0.14285714       0.023
  -0.28571429 -0.42857143  0.14285714       0.047
  -0.14285714 -0.42857143  0.14285714       0.023
  -0.28571429 -0.28571429  0.14285714       0.023
  -0.14285714 -0.28571429  0.14285714       0.023
  -0.14285714 -0.14285714  0.14285714       0.006
  -0.28571429  0.28571429  0.28571429       0.012
  -0.42857143  0.42857143  0.28571429       0.023
  -0.28571429  0.42857143  0.28571429       0.023
  -0.42857143 -0.42857143  0.28571429       0.023
  -0.28571429 -0.42857143  0.28571429       0.023
  -0.28571429 -0.28571429  0.28571429       0.006
  -0.42857143  0.42857143  0.42857143       0.012
  -0.42857143 -0.42857143  0.42857143       0.006

 position of ions in fractional coordinates (direct lattice)
   0.53715000  0.24869000  0.78584000
   0.46285000  0.75131000  0.21416000
   0.24869000  0.46285000  0.71154000
   0.75131000  0.53715000  0.28846000
   0.96285000  0.74869000  0.71154000
   0.03715000  0.25131000  0.28846000
   0.25131000  0.96285000  0.21416000
   0.74869000  0.03715000  0.78584000
   0.25000000  0.25000000  0.00000000
   0.25000000  0.75000000  0.50000000
   0.75000000  0.75000000  0.00000000
   0.75000000  0.25000000  0.50000000
   0.50000000  0.50000000  0.00000000
   0.00000000  0.00000000  0.00000000

 position of ions in cartesian coordinates  (Angst):
   2.49927501  1.30469065  3.02304548
   0.79005622  3.94156232 -1.66793162
   0.27426353  2.42822819  2.73722104
   3.01506771  2.81802478 -1.38210718
   3.71089283  3.92781713  0.24543797
  -0.42156160  1.31843583  1.10967589
  -0.97998486  5.05135467 -1.66793162
   4.26931609  0.19489830  3.02304548
   0.82233281  1.31156324 -1.24589154
  -0.44718591  3.93468973  0.67755693
   2.46699843  3.93468973 -3.73767461
   3.73651714  1.31156324  0.67755693
   1.64466562  2.62312648 -2.49178307
   0.00000000  0.00000000  0.00000000

 k-point   1 :   0.0000 0.0000 0.0000  plane waves:    6491
 k-point   2 :   0.1429 0.0000 0.0000  plane waves:    6464
 k-point   3 :   0.2857 0.0000 0.0000  plane waves:    6469
 k-point   4 :   0.4286 0.0000 0.0000  plane waves:    6470
 k-point   5 :   0.1429 0.1429 0.0000  plane waves:    6481
 k-point   6 :   0.2857 0.1429 0.0000  plane waves:    6465
 k-point   7 :   0.4286 0.1429 0.0000  plane waves:    6473
 k-point   8 :  -0.4286 0.1429 0.0000  plane waves:    6478
 k-point   9 :  -0.2857 0.1429 0.0000  plane waves:    6467
 k-point  10 :  -0.1429 0.1429 0.0000  plane waves:    6464
 k-point  11 :   0.2857 0.2857 0.0000  plane waves:    6469
 k-point  12 :   0.4286 0.2857 0.0000  plane waves:    6470
 k-point  13 :  -0.4286 0.2857 0.0000  plane waves:    6468
 k-point  14 :  -0.2857 0.2857 0.0000  plane waves:    6464
 k-point  15 :   0.4286 0.4286 0.0000  plane waves:    6488
 k-point  16 :  -0.4286 0.4286 0.0000  plane waves:    6476
 k-point  17 :   0.1429 0.1429 0.1429  plane waves:    6474
 k-point  18 :   0.2857 0.1429 0.1429  plane waves:    6480
 k-point  19 :  -0.1429 0.1429 0.1429  plane waves:    6462
 k-point  20 :   0.2857 0.2857 0.1429  plane waves:    6463
 k-point  21 :   0.4286 0.2857 0.1429  plane waves:    6474
 k-point  22 :  -0.2857 0.2857 0.1429  plane waves:    6464
 k-point  23 :  -0.1429 0.2857 0.1429  plane waves:    6467
 k-point  24 :  -0.4286 0.4286 0.1429  plane waves:    6472
 k-point  25 :  -0.2857 0.4286 0.1429  plane waves:    6457
 k-point  26 :  -0.1429 0.4286 0.1429  plane waves:    6476
 k-point  27 :  -0.4286-0.4286 0.1429  plane waves:    6472
 k-point  28 :  -0.2857-0.4286 0.1429  plane waves:    6465
 k-point  29 :  -0.1429-0.4286 0.1429  plane waves:    6467
 k-point  30 :  -0.2857-0.2857 0.1429  plane waves:    6470
 k-point  31 :  -0.1429-0.2857 0.1429  plane waves:    6475
 k-point  32 :  -0.1429-0.1429 0.1429  plane waves:    6472
 k-point  33 :  -0.2857 0.2857 0.2857  plane waves:    6454
 k-point  34 :  -0.4286 0.4286 0.2857  plane waves:    6473
 k-point  35 :  -0.2857 0.4286 0.2857  plane waves:    6451
 k-point  36 :  -0.4286-0.4286 0.2857  plane waves:    6450
 k-point  37 :  -0.2857-0.4286 0.2857  plane waves:    6451
 k-point  38 :  -0.2857-0.2857 0.2857  plane waves:    6460
 k-point  39 :  -0.4286 0.4286 0.4286  plane waves:    6432
 k-point  40 :  -0.4286-0.4286 0.4286  plane waves:    6404

 maximum and minimum number of plane-waves per node :      3255     3196

 maximum number of plane-waves:      6491
 maximum index in each direction:
   IXMAX=   13   IYMAX=   13   IZMAX=   12
   IXMIN=  -13   IYMIN=  -13   IZMIN=  -13

 parallel 3D FFT for wavefunctions:
    minimum data exchange during FFTs selected (reduces bandwidth)
 parallel 3D FFT for charge:
    minimum data exchange during FFTs selected (reduces bandwidth)

 Broyden mixing: mesh for mixing (old mesh)
   NGX = 25   NGY = 25   NGZ = 25
  (NGX  =108   NGY  =108   NGZ  =108)
  gives a total of  15625 points

 initial charge density was supplied:
 charge density of overlapping atoms calculated
 number of electron      88.0000000 magnetization
 keeping initial charge density in first step

 Maximum index for augmentation-charges        23006 (set IRDMAX)

 First call to EWALD:  gamma=   0.306
 Maximum number of real-space cells 3x 3x 3
 Maximum number of reciprocal cells 3x 3x 3

--------------------------------------- Iteration      1(   1)  ---------------------------------------

 eigenvalue-minimisations  :  4752
 total energy-change (2. order) : 0.7130948E+03  (-0.5619909E+04)
 number of electron      88.0000000 magnetization
 augmentation part       88.0000000 magnetization

 Free energy of the ion-electron system (eV)
  alpha Z        PSCENC =       329.99953107
  Ewald energy   TEWEN  =     -6000.67460121
  -Hartree energ DENC   =     -2094.22148560
  -exchange      EXHF   =         0.00000000
  -V(xc)+E(xc)   XCENC  =       359.92893051
  PAW double counting   =      6445.14197187    -6413.54546859
  entropy T*S    EENTRO =        -0.00090420
  eigenvalues    EBANDS =      -138.15315664
  atomic energy  EATOM  =      8224.62000819
  free energy    TOTEN  =       713.09482541 eV

  energy without entropy =      713.09572960  energy(sigma->0) =      713.09527751

[...]

 eigenvalue-minimisations  :  5028
 total energy-change (2. order) :-0.8637632E+03  (-0.8481428E+03)
 number of electron      88.0000000 magnetization
 augmentation part       88.0000000 magnetization

[...]

 eigenvalue-minimisations  :     0
 total energy-change (2. order) : 0.1077569E-07  (-0.4115531E-07)
 number of electron      88.0000005 magnetization
 augmentation part        9.1716784 magnetization

[...]

 eigenvalue-minimisations  :     0
 total energy-change (2. order) :-0.3819878E-10  ( 0.2404592E-07)
 number of electron      88.0000005 magnetization
 augmentation part        9.1716695 magnetization

[...]

 eigenvalue-minimisations  :     0
 total energy-change (2. order) :-0.8458301E-09  (-0.1084848E-08)
 number of electron      88.0000005 magnetization
 augmentation part        9.1716687 magnetization

[...]

--------------------------------------- Iteration      1(  56)  ---------------------------------------

 eigenvalue-minimisations  :     0
 total energy-change (2. order) :-0.9895302E-09  ( 0.2337431E-10)
 number of electron      88.0000005 magnetization
 augmentation part        9.1716703 magnetization

 Free energy of the ion-electron system (eV)
  alpha Z        PSCENC =       329.99953107
  Ewald energy   TEWEN  =     -6000.67460121
  -Hartree energ DENC   =     -2011.49985758
  -exchange      EXHF   =         0.00000000
  -V(xc)+E(xc)   XCENC  =       367.39406251
  PAW double counting   =     13554.19926645   -13531.43782375
  entropy T*S    EENTRO =        -0.00244636
  eigenvalues    EBANDS =     -1082.73153738
  atomic energy  EATOM  =      8224.62000819
  free energy    TOTEN  =      -150.13339808 eV

  energy without entropy =     -150.13095172  energy(sigma->0) =     -150.13217490

  average scaling for gradient   0.9873

 average (electrostatic) potential at core
  the test charge radii are     0.7672  1.0818  0.9892
  (the norm of the test charge is              1.0000)
       1 -28.2757       2 -28.2757       3 -28.2757       4 -28.2757       5 -28.2757
       6 -28.2757       7 -28.2757       8 -28.2757       9 -80.5529      10 -81.0945
      11 -80.5529      12 -81.0945      13 -85.3054      14 -85.3054

 E-fermi :   6.4411     XC(G=0): -11.5895     alpha+bet :-13.5043

 Fermi energy:         6.4410700090

 k-point     1 :       0.0000    0.0000    0.0000
  band No.  band energies     occupation
      1     -56.9973      2.00000
      2     -56.9964      2.00000
      3     -56.7386      2.00000
      4     -56.7314      2.00000
      5     -30.9816      2.00000
      6     -30.8883      2.00000
      7     -30.4111      2.00000
      8     -30.3872      2.00000
      9     -30.2372      2.00000
     10     -30.2371      2.00000
     11     -30.2367      2.00000
     12     -30.2366      2.00000
     13     -29.9735      2.00000
     14     -29.9734      2.00000
     15     -29.9697      2.00000
     16     -29.9696      2.00000
     17      -7.3994      2.00000
     18      -5.2906      2.00000
     19      -3.4158      2.00000
     20      -3.4158      2.00000
     21      -1.6307      2.00000
     22      -1.5684      2.00000
     23      -1.5683      2.00000
     24      -1.0326      2.00000
     25       0.3957      2.00000
     26       1.6415      2.00000
     27       2.1531      2.00000
     28       2.1532      2.00000
     29       2.2901      2.00000
     30       2.6374      2.00000
     31       2.6374      2.00000
     32       2.9219      2.00000
     33       3.4643      2.00000
     34       3.5986      2.00000
     35       3.6758      2.00000
     36       4.1115      2.00000
     37       4.1115      2.00000
     38       4.7195      2.00000
     39       4.7195      2.00000
     40       5.8391      2.00000
     41       5.8391      2.00000
     42       6.2550      2.00000
     43       6.4134      1.94956
     44       6.4412      0.99571
     45       6.5001      0.00003
     46       6.8193      0.00000
     47       6.9370      0.00000
     48       6.9653      0.00000
     49       7.4488      0.00000
     50       7.4946      0.00000
     51       7.4946      0.00000
     52       7.5550      0.00000
     53       8.0994      0.00000
     54       8.9090      0.00000

[...]

 k-point    40 :      -0.4286   -0.4286    0.4286
  band No.  band energies     occupation
      1     -56.9971      2.00000
      2     -56.9965      2.00000
      3     -56.7383      2.00000
      4     -56.7317      2.00000
      5     -30.9774      2.00000
      6     -30.8926      2.00000
      7     -30.4099      2.00000
      8     -30.3885      2.00000
      9     -30.2396      2.00000
     10     -30.2396      2.00000
     11     -30.2343      2.00000
     12     -30.2343      2.00000
     13     -29.9718      2.00000
     14     -29.9717      2.00000
     15     -29.9714      2.00000
     16     -29.9713      2.00000
     17      -6.8147      2.00000
     18      -6.0822      2.00000
     19      -2.9133      2.00000
     20      -2.9132      2.00000
     21      -2.3883      2.00000
     22      -2.3883      2.00000
     23      -2.0310      2.00000
     24      -0.1713      2.00000
     25       0.0300      2.00000
     26       2.0142      2.00000
     27       2.0142      2.00000
     28       2.3438      2.00000
     29       2.4189      2.00000
     30       2.4189      2.00000
     31       2.6282      2.00000
     32       2.9323      2.00000
     33       3.5194      2.00000
     34       3.8536      2.00000
     35       4.5411      2.00000
     36       4.5818      2.00000
     37       4.7561      2.00000
     38       4.8907      2.00000
     39       4.8907      2.00000
     40       5.2292      2.00000
     41       5.2656      2.00000
     42       5.2657      2.00000
     43       5.8559      2.00000
     44       6.1996      2.00000
     45       6.1996      2.00000
     46       6.5921      0.00000
     47       7.0122      0.00000
     48       7.0994      0.00000
     49       7.1994      0.00000
     50       7.9366      0.00000
     51       8.3872      0.00000
     52       8.4431      0.00000
     53       8.5858      0.00000
     54       8.9334      0.00000

 soft charge-density along one line, spin component           1
         0         1         2         3         4         5         6         7         8         9
 total charge-density along one line

------------------------ aborting loop because EDIFF is reached ----------------------------------------

  FREE ENERGIE OF THE ION-ELECTRON SYSTEM (eV)
  free  energy   TOTEN  =      -150.13339808 eV

  energy  without entropy=     -150.13095172  energy(sigma->0) =     -150.13217490

 writing wavefunctions