 vasp.6.2.0 18Jan21 (build Jan 05 2022 15:41:44) complex

 executed on             LinuxIFC date 2025.05.07  16:15:07

 INCAR:
   SYSTEM = routine with relax: pwdword
   ICHARG = 2
   NPAR = 6
   KPAR = 2
   NCORE = 2
   ADDGRID = T
   PREC = Acc
   ENCUT = 600
   METAGGA = R2SCAN
   LASPH = .TRUE.
   LMIXTAU = .FALSE.
   ALGO = A
   EDIFF = 1E-9
   NELM = 100
   NELMIN = 6
   IALGO = 38
   LREAL = F
   NSW = 0
   ISIF = -1
   ISMEAR = 0
   SIGMA = 0.02

 POTCAR:    PAW_PBE B 06Sep2000
 POTCAR:    PAW_PBE Mo_sv 02Feb2006
 POTCAR:    PAW_PBE Si 05Jan2001
|           W    W    AA    RRRRR   N    N  II  N    N   GGGG   !!!           |
|           W    W   A  A   R    R  NN   N  II  NN   N  G    G  !!!           |
|           W    W  A    A  R    R  N N  N  II  N N  N  G       !!!           |
|           W WW W  AAAAAA  RRRRR   N  N N  II  N  N N  G  GGG   !            |
|           WW  WW  A    A  R   R   N   NN  II  N   NN  G    G                |
|           W    W  A    A  R    R  N    N  II  N    N   GGGG   !!!           |
|     For optimal performance we recommend to set                             |
|       NCORE = 2 up to number-of-cores-per-socket                            |
|     This setting can greatly improve the performance of VASP for DFT.       |
|     The default, NCORE=1 might be grossly inefficient on modern             |
|     multi-core architectures or massively parallel machines. Do your        |
|     Unfortunately you need to use the default for GW and RPA                |
|     calculations (for HF NCORE is supported but not extensively tested      |
|     yet).                                                                   |

 POTCAR:    PAW_PBE B 06Sep2000
   VRHFIN =B: s2p1

   TITEL  = PAW_PBE B 06Sep2000
   POMASS =   10.811; ZVAL   =    3.000    mass and valenz
   ENMAX  =  318.614; ENMIN  =  238.960 eV

 POTCAR:    PAW_PBE Mo_sv 02Feb2006
   VRHFIN =Mo: 4p5s4d

   TITEL  = PAW_PBE Mo_sv 02Feb2006
   POMASS =   95.940; ZVAL   =   14.000    mass and valenz
   ENMAX  =  242.676; ENMIN  =  182.007 eV

 POTCAR:    PAW_PBE Si 05Jan2001
   VRHFIN =Si: s2p2

   TITEL  = PAW_PBE Si 05Jan2001
   POMASS =   28.085; ZVAL   =    4.000    mass and valenz
   ENMAX  =  245.345; ENMIN  =  184.009 eV

  PAW_PBE B 06Sep2000                   :
  PAW_PBE Mo_sv 02Feb2006               :
  PAW_PBE Si 05Jan2001                  :

 POSCAR: EA77
  positions in direct lattice

 METAGGA = R2SCA    LMAXTAU =  6    LMIXTAU =  F

 ion  position               nearest neighbor table
   1  0.249  0.749  0.997-   5 2.27   6 2.29   8 2.29   7 2.30
   2  0.751  0.251  0.003-   5 2.27   6 2.29   8 2.29   7 2.30
   3  0.749  0.751  0.500-   7 2.27   8 2.29   6 2.29   5 2.30
   4  0.251  0.249  0.500-   7 2.27   6 2.29   8 2.29   5 2.30
   5  0.000  0.500  0.500-   1 2.27   2 2.27   3 2.30   4 2.30   6 3.23   8 3.23   8 3.23   6 3.23

   6  0.500  0.500  0.000-   9 2.18  10 2.18   3 2.29   4 2.29   1 2.29   2 2.29   7 3.23   5 3.23
                             7 3.23   5 3.23
   7  0.500  0.000  0.500-   3 2.27   4 2.27   2 2.30   1 2.30   8 3.23   6 3.23   6 3.23   8 3.23

   8  0.000  0.000  0.000-   9 2.18  10 2.18   4 2.29   3 2.29   1 2.29   2 2.29   7 3.23   5 3.23
                             5 3.23   7 3.23
   9  0.250  0.250  0.000-   6 2.18   8 2.18
  10  0.750  0.750  0.000-   6 2.18   8 2.18

  Warning from LATTYP: Got some problem with cell dimensions!
  Tried to take original basis but could not verify dimensions!
  LATTYP: Found a base centered monoclinic cell.
 ALAT       =     8.7108388863
 B/A-ratio  =     1.0499181346
 C/A-ratio  =     0.7249600398
 COS(beta)  =    -0.6896828667

  Lattice vectors:

 A1 = (  -5.5549114260,   0.0000000000,   3.0039053013)
 A2 = (   1.9738528982,  -5.1923930598,   3.0039053013)
 A3 = (   3.5810585278,   5.1923930598,   0.3072893974)

Analysis of symmetry for initial positions (statically):
 Subroutine PRICEL returns:
 Original cell was already a primitive cell.

 Routine SETGRP: Setting up the symmetry group for a
 base centered monoclinic supercell.

 Subroutine GETGRP returns: Found  4 space group operations
 (whereof  2 operations were pure point group operations)
 out of a pool of  4 trial point group operations.

The static configuration has the point symmetry S_2 .
 The point group associated with its full space group is C_2h.

Analysis of symmetry for dynamics (positions and initial velocities):
 Subroutine PRICEL returns:
 Original cell was already a primitive cell.

 Routine SETGRP: Setting up the symmetry group for a
 base centered monoclinic supercell.

 Subroutine GETGRP returns: Found  4 space group operations
 (whereof  2 operations were pure point group operations)
 out of a pool of  4 trial point group operations.

The dynamic configuration has the point symmetry S_2 .
 The point group associated with its full space group is C_2h.

 Subroutine INISYM returns: Found  4 space group operations
 (whereof  2 operations are pure point group operations),
 and found     1 'primitive' translations

                                     Primitive cell

  volume of cell :     182.1482

  direct lattice vectors                    reciprocal lattice vectors
     5.554911426  0.000000000 -3.003905301     0.180020872  0.068433710  0.000000000
    -1.973852898  5.192393060 -3.003905301     0.000000000  0.192589426  0.000000000
     0.000000000  0.000000000  6.315100000     0.085630576  0.124160945  0.158350620

  length of vectors
     6.315100000  6.315100000  6.315100000     0.192589426  0.192589426  0.218685744

  position of ions in fractional coordinates (direct lattice)
     0.248560000  0.748560000  0.997120000
     0.751440000  0.251440000  0.002880000
     0.748560000  0.751440000  0.500000000
     0.251440000  0.248560000  0.500000000
     0.000000000  0.500000000  0.500000000
     0.500000000  0.500000000  1.000000000
     0.500000000  0.000000000  0.500000000
     0.000000000  0.000000000  0.000000000
     0.250000000  0.250000000  1.000000000
     0.750000000  0.750000000  1.000000000

  ion indices of the primitive-cell ions
   primitive index   ion index
                 1           1
                 2           2
                 3           3
                 4           4
                 5           5
                 6           6
                 7           7
                 8           8
                 9           9
                10          10

 KPOINTS: EA

Automatic generation of k-mesh.
 Grid dimensions read from file:
 generate k-points for:    7    7    8

 Generating k-lattice:

  Cartesian coordinates                     Fractional coordinates (reciprocal lattice)
     0.025717267  0.009776244  0.000000000     0.142857143  0.000000000  0.000000000
     0.000000000  0.027512775  0.000000000     0.000000000  0.142857143  0.000000000
     0.010703822  0.015520118  0.019793827     0.000000000 -0.000000000  0.125000000

  Length of vectors
     0.027512775  0.027512775  0.027335718

  Shift w.r.t. Gamma in fractional coordinates (k-lattice)
     0.000000000  0.000000000  0.000000000

 Subroutine IBZKPT returns following result:

 Found    116 irreducible k-points:

 Following reciprocal coordinates:
            Coordinates               Weight
  0.000000  0.000000  0.000000      1.000000
  0.142857 -0.000000  0.000000      4.000000
  0.285714  0.000000  0.000000      4.000000
  0.428571 -0.000000  0.000000      4.000000
  0.142857  0.142857  0.000000      2.000000
  0.285714  0.142857  0.000000      4.000000
  0.428571  0.142857  0.000000      4.000000
 -0.428571  0.142857  0.000000      4.000000
 -0.285714  0.142857  0.000000      4.000000
 -0.142857  0.142857  0.000000      2.000000
  0.285714  0.285714  0.000000      2.000000
  0.428571  0.285714  0.000000      4.000000
 -0.428571  0.285714  0.000000      4.000000
 -0.285714  0.285714  0.000000      2.000000
  0.428571  0.428571  0.000000      2.000000
 -0.428571  0.428571  0.000000      2.000000
  0.000000 -0.000000  0.125000      2.000000
  0.142857 -0.000000  0.125000      4.000000
  0.285714 -0.000000  0.125000      4.000000
  0.428571  0.000000  0.125000      4.000000
 -0.428571  0.000000  0.125000      4.000000
 -0.285714 -0.000000  0.125000      4.000000
 -0.142857  0.000000  0.125000      4.000000
  0.142857  0.142857  0.125000      2.000000
  0.285714  0.142857  0.125000      4.000000
  0.428571  0.142857  0.125000      4.000000
 -0.428571  0.142857  0.125000      4.000000
 -0.285714  0.142857  0.125000      4.000000
 -0.142857  0.142857  0.125000      4.000000
  0.285714  0.285714  0.125000      2.000000
  0.428571  0.285714  0.125000      4.000000
 -0.428571  0.285714  0.125000      4.000000
 -0.285714  0.285714  0.125000      4.000000
 -0.142857  0.285714  0.125000      4.000000
  0.428571  0.428571  0.125000      2.000000
 -0.428571  0.428571  0.125000      4.000000
 -0.285714  0.428571  0.125000      4.000000
 -0.142857  0.428571  0.125000      4.000000
 -0.428571 -0.428571  0.125000      2.000000
 -0.285714 -0.428571  0.125000      4.000000
 -0.142857 -0.428571  0.125000      4.000000
 -0.285714 -0.285714  0.125000      2.000000
 -0.142857 -0.285714  0.125000      4.000000
 -0.142857 -0.142857  0.125000      2.000000
  0.000000 -0.000000  0.250000      2.000000
  0.142857 -0.000000  0.250000      4.000000
  0.285714 -0.000000  0.250000      4.000000
  0.428571 -0.000000  0.250000      4.000000
 -0.428571 -0.000000  0.250000      4.000000
 -0.285714 -0.000000  0.250000      4.000000
 -0.142857  0.000000  0.250000      4.000000
  0.142857  0.142857  0.250000      2.000000
  0.285714  0.142857  0.250000      4.000000
  0.428571  0.142857  0.250000      4.000000
 -0.428571  0.142857  0.250000      4.000000
 -0.285714  0.142857  0.250000      4.000000
 -0.142857  0.142857  0.250000      4.000000
  0.285714  0.285714  0.250000      2.000000
  0.428571  0.285714  0.250000      4.000000
 -0.428571  0.285714  0.250000      4.000000
[...]
  0.142857  0.000000  0.500000      4.000000
  0.285714 -0.000000  0.500000      4.000000
  0.428571 -0.000000  0.500000      4.000000
  0.142857  0.142857  0.500000      2.000000
  0.285714  0.142857  0.500000      4.000000
  0.428571  0.142857  0.500000      4.000000
 -0.428571  0.142857  0.500000      4.000000
 -0.285714  0.142857  0.500000      4.000000
 -0.142857  0.142857  0.500000      2.000000
  0.285714  0.285714  0.500000      2.000000
  0.428571  0.285714  0.500000      4.000000
 -0.428571  0.285714  0.500000      4.000000
 -0.285714  0.285714  0.500000      2.000000
  0.428571  0.428571  0.500000      2.000000
 -0.428571  0.428571  0.500000      2.000000

 Following cartesian coordinates:
            Coordinates               Weight
  0.000000  0.000000  0.000000      1.000000
  0.025717  0.009776  0.000000      4.000000
  0.051435  0.019552  0.000000      4.000000
  0.077152  0.029329  0.000000      4.000000
  0.025717  0.037289  0.000000      2.000000
  0.051435  0.047065  0.000000      4.000000
  0.077152  0.056842  0.000000      4.000000
 -0.077152 -0.001816  0.000000      4.000000
 -0.051435  0.007960  0.000000      4.000000
 -0.025717  0.017737  0.000000      2.000000
[...]
   0.14285714  0.14285714  0.00000000       0.005
   0.28571429  0.14285714  0.00000000       0.010
   0.42857143  0.14285714  0.00000000       0.010
  -0.42857143  0.14285714  0.00000000       0.010
  -0.28571429  0.14285714  0.00000000       0.010
  -0.14285714  0.14285714  0.00000000       0.005
   0.28571429  0.28571429  0.00000000       0.005
   0.42857143  0.28571429  0.00000000       0.010
  -0.42857143  0.28571429  0.00000000       0.010
  -0.28571429  0.28571429  0.00000000       0.005
   0.42857143  0.42857143  0.00000000       0.005
  -0.42857143  0.42857143  0.00000000       0.005
   0.00000000 -0.00000000  0.12500000       0.005
   0.14285714 -0.00000000  0.12500000       0.010
   0.28571429 -0.00000000  0.12500000       0.010
   0.42857143  0.00000000  0.12500000       0.010
  -0.42857143  0.00000000  0.12500000       0.010
  -0.28571429 -0.00000000  0.12500000       0.010
  -0.14285714  0.00000000  0.12500000       0.010
   0.14285714  0.14285714  0.12500000       0.005
   0.28571429  0.14285714  0.12500000       0.010
   0.42857143  0.14285714  0.12500000       0.010
  -0.42857143  0.14285714  0.12500000       0.010
  -0.28571429  0.14285714  0.12500000       0.010
  -0.14285714  0.14285714  0.12500000       0.010
   0.28571429  0.28571429  0.12500000       0.005
   0.42857143  0.28571429  0.12500000       0.010
  -0.42857143  0.28571429  0.12500000       0.010
  -0.28571429  0.28571429  0.12500000       0.010
  -0.14285714  0.28571429  0.12500000       0.010
   0.42857143  0.42857143  0.12500000       0.005
  -0.42857143  0.42857143  0.12500000       0.010
  -0.28571429  0.42857143  0.12500000       0.010
  -0.14285714  0.42857143  0.12500000       0.010
  -0.42857143 -0.42857143  0.12500000       0.005
  -0.28571429 -0.42857143  0.12500000       0.010
  -0.14285714 -0.42857143  0.12500000       0.010
  -0.28571429 -0.28571429  0.12500000       0.005
  -0.14285714 -0.28571429  0.12500000       0.010
  -0.14285714 -0.14285714  0.12500000       0.005
   0.00000000 -0.00000000  0.25000000       0.005
   0.14285714 -0.00000000  0.25000000       0.010
   0.28571429 -0.00000000  0.25000000       0.010
   0.42857143 -0.00000000  0.25000000       0.010
  -0.42857143 -0.00000000  0.25000000       0.010
  -0.28571429 -0.00000000  0.25000000       0.010
  -0.14285714  0.00000000  0.25000000       0.010
   0.14285714  0.14285714  0.25000000       0.005
   0.28571429  0.14285714  0.25000000       0.010
   0.42857143  0.14285714  0.25000000       0.010
  -0.42857143  0.14285714  0.25000000       0.010
  -0.28571429  0.14285714  0.25000000       0.010
  -0.14285714  0.14285714  0.25000000       0.010
   0.28571429  0.28571429  0.25000000       0.005
   0.42857143  0.28571429  0.25000000       0.010
  -0.42857143  0.28571429  0.25000000       0.010
[...]
   0.14285714  0.00000000  0.50000000       0.010
   0.28571429 -0.00000000  0.50000000       0.010
   0.42857143 -0.00000000  0.50000000       0.010
   0.14285714  0.14285714  0.50000000       0.005
   0.28571429  0.14285714  0.50000000       0.010
   0.42857143  0.14285714  0.50000000       0.010
  -0.42857143  0.14285714  0.50000000       0.010
  -0.28571429  0.14285714  0.50000000       0.010
  -0.14285714  0.14285714  0.50000000       0.005
   0.28571429  0.28571429  0.50000000       0.005
   0.42857143  0.28571429  0.50000000       0.010
  -0.42857143  0.28571429  0.50000000       0.010
  -0.28571429  0.28571429  0.50000000       0.005
   0.42857143  0.42857143  0.50000000       0.005
  -0.42857143  0.42857143  0.50000000       0.005

 position of ions in fractional coordinates (direct lattice)
   0.24856000  0.74856000  0.99712000
   0.75144000  0.25144000  0.00288000
   0.74856000  0.75144000  0.50000000
   0.25144000  0.24856000  0.50000000
   0.00000000  0.50000000  0.50000000
   0.50000000  0.50000000  0.00000000
   0.50000000  0.00000000  0.50000000
   0.00000000  0.00000000  0.00000000
   0.25000000  0.25000000  0.00000000
   0.75000000  0.75000000  0.00000000

 position of ions in cartesian coordinates  (Angst):
  -0.09681854  3.88681775  3.30165846
   3.67787707  1.30557531 -2.99436906
   2.67495248  3.90177184 -1.34830795
   0.90610605  1.29062122  1.65559735
  -0.98692645  2.59619653  1.65559735
   1.79052926  2.59619653 -3.00390530
   2.77745571  0.00000000  1.65559735
   0.00000000  0.00000000  0.00000000
   0.89526463  1.29809826 -1.50195265
   2.68579390  3.89429479 -4.50585795

 k-point   1 :   0.0000 0.0000 0.0000  plane waves:    6101
 k-point   2 :   0.1429-0.0000 0.0000  plane waves:    6086
 k-point   3 :   0.2857 0.0000 0.0000  plane waves:    6079
 k-point   4 :   0.4286-0.0000 0.0000  plane waves:    6071
 k-point   5 :   0.1429 0.1429 0.0000  plane waves:    6083
 k-point   6 :   0.2857 0.1429 0.0000  plane waves:    6076
 k-point   7 :   0.4286 0.1429 0.0000  plane waves:    6083
 k-point   8 :  -0.4286 0.1429 0.0000  plane waves:    6077
 k-point   9 :  -0.2857 0.1429 0.0000  plane waves:    6094
 k-point  10 :  -0.1429 0.1429 0.0000  plane waves:    6090
 k-point  11 :   0.2857 0.2857 0.0000  plane waves:    6072
 k-point  12 :   0.4286 0.2857 0.0000  plane waves:    6087
 k-point  13 :  -0.4286 0.2857 0.0000  plane waves:    6076
 k-point  14 :  -0.2857 0.2857 0.0000  plane waves:    6116
 k-point  15 :   0.4286 0.4286 0.0000  plane waves:    6084
 k-point  16 :  -0.4286 0.4286 0.0000  plane waves:    6086
 k-point  17 :   0.0000-0.0000 0.1250  plane waves:    6085
 k-point  18 :   0.1429-0.0000 0.1250  plane waves:    6092
 k-point  19 :   0.2857-0.0000 0.1250  plane waves:    6080
 k-point  20 :   0.4286 0.0000 0.1250  plane waves:    6080
 k-point  21 :  -0.4286 0.0000 0.1250  plane waves:    6077
 k-point  22 :  -0.2857-0.0000 0.1250  plane waves:    6081
 k-point  23 :  -0.1429 0.0000 0.1250  plane waves:    6087
 k-point  24 :   0.1429 0.1429 0.1250  plane waves:    6094
 k-point  25 :   0.2857 0.1429 0.1250  plane waves:    6080
 k-point  26 :   0.4286 0.1429 0.1250  plane waves:    6084
 k-point  27 :  -0.4286 0.1429 0.1250  plane waves:    6087
 k-point  28 :  -0.2857 0.1429 0.1250  plane waves:    6097
 k-point  29 :  -0.1429 0.1429 0.1250  plane waves:    6090
 k-point  30 :   0.2857 0.2857 0.1250  plane waves:    6083
 k-point  31 :   0.4286 0.2857 0.1250  plane waves:    6084
 k-point  32 :  -0.4286 0.2857 0.1250  plane waves:    6085
 k-point  33 :  -0.2857 0.2857 0.1250  plane waves:    6087
 k-point  34 :  -0.1429 0.2857 0.1250  plane waves:    6087
 k-point  35 :   0.4286 0.4286 0.1250  plane waves:    6083
 k-point  36 :  -0.4286 0.4286 0.1250  plane waves:    6083
 k-point  37 :  -0.2857 0.4286 0.1250  plane waves:    6070
 k-point  38 :  -0.1429 0.4286 0.1250  plane waves:    6071
 k-point  39 :  -0.4286-0.4286 0.1250  plane waves:    6074
 k-point  40 :  -0.2857-0.4286 0.1250  plane waves:    6083
 k-point  41 :  -0.1429-0.4286 0.1250  plane waves:    6066
 k-point  42 :  -0.2857-0.2857 0.1250  plane waves:    6078
 k-point  43 :  -0.1429-0.2857 0.1250  plane waves:    6067
 k-point  44 :  -0.1429-0.1429 0.1250  plane waves:    6077
 k-point  45 :   0.0000-0.0000 0.2500  plane waves:    6116
 k-point  46 :   0.1429-0.0000 0.2500  plane waves:    6082
 k-point  47 :   0.2857-0.0000 0.2500  plane waves:    6082
 k-point  48 :   0.4286-0.0000 0.2500  plane waves:    6071
 k-point  49 :  -0.4286-0.0000 0.2500  plane waves:    6078
 k-point  50 :  -0.2857-0.0000 0.2500  plane waves:    6078
 k-point  51 :  -0.1429 0.0000 0.2500  plane waves:    6086
 k-point  52 :   0.1429 0.1429 0.2500  plane waves:    6085
 k-point  53 :   0.2857 0.1429 0.2500  plane waves:    6102
 k-point  54 :   0.4286 0.1429 0.2500  plane waves:    6083
 k-point  55 :  -0.4286 0.1429 0.2500  plane waves:    6080
 k-point  56 :  -0.2857 0.1429 0.2500  plane waves:    6089
 k-point  57 :  -0.1429 0.1429 0.2500  plane waves:    6079
 k-point  58 :   0.2857 0.2857 0.2500  plane waves:    6094
 k-point  59 :   0.4286 0.2857 0.2500  plane waves:    6090
 k-point  60 :  -0.4286 0.2857 0.2500  plane waves:    6073
[...]
 k-point 102 :   0.1429 0.0000 0.5000  plane waves:    6089
 k-point 103 :   0.2857-0.0000 0.5000  plane waves:    6087
 k-point 104 :   0.4286-0.0000 0.5000  plane waves:    6078
 k-point 105 :   0.1429 0.1429 0.5000  plane waves:    6090
 k-point 106 :   0.2857 0.1429 0.5000  plane waves:    6080
 k-point 107 :   0.4286 0.1429 0.5000  plane waves:    6060
 k-point 108 :  -0.4286 0.1429 0.5000  plane waves:    6071
 k-point 109 :  -0.2857 0.1429 0.5000  plane waves:    6077
 k-point 110 :  -0.1429 0.1429 0.5000  plane waves:    6076
 k-point 111 :   0.2857 0.2857 0.5000  plane waves:    6070
 k-point 112 :   0.4286 0.2857 0.5000  plane waves:    6070
 k-point 113 :  -0.4286 0.2857 0.5000  plane waves:    6071
 k-point 114 :  -0.2857 0.2857 0.5000  plane waves:    6066
 k-point 115 :   0.4286 0.4286 0.5000  plane waves:    6058
 k-point 116 :  -0.4286 0.4286 0.5000  plane waves:    6066

 maximum and minimum number of plane-waves per node :      3079     3008

 maximum number of plane-waves:      6116
 maximum index in each direction:
   IXMAX=   13   IYMAX=   13   IZMAX=   12
   IXMIN=  -13   IYMIN=  -13   IZMIN=  -13

 parallel 3D FFT for wavefunctions:
    minimum data exchange during FFTs selected (reduces bandwidth)
 parallel 3D FFT for charge:
    minimum data exchange during FFTs selected (reduces bandwidth)

 Broyden mixing: mesh for mixing (old mesh)
   NGX = 25   NGY = 25   NGZ = 25
  (NGX  =100   NGY  =100   NGZ  =100)
  gives a total of  15625 points

 initial charge density was supplied:
 charge density of overlapping atoms calculated
 number of electron      76.0000000 magnetization
 keeping initial charge density in first step

 Maximum index for augmentation-charges        20879 (set IRDMAX)

 First call to EWALD:  gamma=   0.313
 Maximum number of real-space cells 3x 3x 3
 Maximum number of reciprocal cells 3x 3x 3

--------------------------------------- Iteration      1(   1)  ---------------------------------------

 eigenvalue-minimisations  : 12432
 total energy-change (2. order) : 0.6096964E+03  (-0.4822026E+04)
 number of electron      76.0000000 magnetization
 augmentation part       76.0000000 magnetization

 Free energy of the ion-electron system (eV)
  alpha Z        PSCENC =       264.98714851
  Ewald energy   TEWEN  =     -5214.71419937
  -Hartree energ DENC   =     -2414.43999058
  -exchange      EXHF   =         0.00000000
  -V(xc)+E(xc)   XCENC  =       323.75991124
  PAW double counting   =      6278.15209018    -6244.81064237
  entropy T*S    EENTRO =        -0.00045343
  eigenvalues    EBANDS =      -323.17911101
  atomic energy  EATOM  =      7939.94160518
  free energy    TOTEN  =       609.69635835 eV

  energy without entropy =      609.69681178  energy(sigma->0) =      609.69658507

[...]

 eigenvalue-minimisations  : 12684
 total energy-change (2. order) :-0.7506531E+03  (-0.7285573E+03)
 number of electron      76.0000000 magnetization
 augmentation part       76.0000000 magnetization

[...]

 eigenvalue-minimisations  :     0
 total energy-change (2. order) :-0.2000161E-07  ( 0.6809360E-08)
 number of electron      76.0000000 magnetization
 augmentation part        9.1752485 magnetization

[...]

 eigenvalue-minimisations  :     0
 total energy-change (2. order) : 0.1008630E-08  (-0.3150272E-09)
 number of electron      76.0000000 magnetization
 augmentation part        9.1752459 magnetization

[...]

--------------------------------------- Iteration      1(  46)  ---------------------------------------

 eigenvalue-minimisations  :     0
 total energy-change (2. order) :-0.2064553E-09  (-0.2004830E-09)
 number of electron      76.0000000 magnetization
 augmentation part        9.1752458 magnetization

 Free energy of the ion-electron system (eV)
  alpha Z        PSCENC =       264.98714851
  Ewald energy   TEWEN  =     -5214.71419937
  -Hartree energ DENC   =     -2351.75697794
  -exchange      EXHF   =         0.00000000
  -V(xc)+E(xc)   XCENC  =       330.41740263
  PAW double counting   =      8129.77597834    -8109.90485716
  entropy T*S    EENTRO =        -0.00166982
  eigenvalues    EBANDS =     -1129.27155521
  atomic energy  EATOM  =      7939.94160518
  free energy    TOTEN  =      -140.52712483 eV

  energy without entropy =     -140.52545502  energy(sigma->0) =     -140.52628993

  average scaling for gradient   0.7408

 average (electrostatic) potential at core
  the test charge radii are     0.7672  1.0818  0.9892
  (the norm of the test charge is              1.0000)
       1 -28.4373       2 -28.4373       3 -28.4389       4 -28.4389       5 -81.9281
       6 -80.8413       7 -81.9290       8 -80.8413       9 -87.5146      10 -87.5146

 E-fermi :   5.1555     XC(G=0): -10.8126     alpha+bet :-11.9322

 Fermi energy:         5.1555365156

 k-point     1 :       0.0000    0.0000    0.0000
  band No.  band energies     occupation
      1     -57.8814      2.00000
      2     -57.8805      2.00000
      3     -56.9632      2.00000
      4     -56.9621      2.00000
      5     -31.3358      2.00000
      6     -31.3326      2.00000
      7     -31.1722      2.00000
      8     -31.1715      2.00000
      9     -31.1592      2.00000
     10     -31.1587      2.00000
     11     -30.8448      2.00000
     12     -30.8159      2.00000
     13     -30.2869      2.00000
     14     -30.2851      2.00000
     15     -30.2792      2.00000
     16     -30.2775      2.00000
     17      -4.6308      2.00000
     18      -1.9576      2.00000
     19      -1.9173      2.00000
     20      -1.0254      2.00000
     21      -0.0958      2.00000
     22      -0.0941      2.00000
     23       0.3504      2.00000
     24       0.6163      2.00000
     25       0.7814      2.00000
     26       0.7823      2.00000
     27       1.3451      2.00000
     28       2.2501      2.00000
     29       2.5978      2.00000
     30       3.1126      2.00000
     31       3.4245      2.00000
     32       3.4250      2.00000
     33       3.9520      2.00000
     34       3.9534      2.00000
     35       4.0464      2.00000
     36       4.3402      2.00000
     37       5.6363      0.00000
     38       5.6374      0.00000
     39       5.7864      0.00000
     40       5.7884      0.00000
     41       5.9471      0.00000
     42       6.0973      0.00000
     43       7.2239      0.00000
     44       7.2245      0.00000
     45       7.4518      0.00000
     46       7.6991      0.00000
     47       8.6589      0.00000
     48       8.8519      0.00000

[...]

 k-point   116 :      -0.4286    0.4286    0.5000
  band No.  band energies     occupation
      1     -57.8814      2.00000
      2     -57.8805      2.00000
      3     -56.9636      2.00000
      4     -56.9617      2.00000
      5     -31.3374      2.00000
      6     -31.3311      2.00000
      7     -31.1717      2.00000
      8     -31.1710      2.00000
      9     -31.1584      2.00000
     10     -31.1579      2.00000
     11     -30.8449      2.00000
     12     -30.8158      2.00000
     13     -30.2871      2.00000
     14     -30.2854      2.00000
     15     -30.2806      2.00000
     16     -30.2788      2.00000
     17      -3.3798      2.00000
     18      -3.2675      2.00000
     19      -1.8740      2.00000
     20      -1.7939      2.00000
     21      -0.8308      2.00000
     22      -0.7131      2.00000
     23       0.6149      2.00000
     24       0.8506      2.00000
     25       1.1765      2.00000
     26       2.2744      2.00000
     27       2.3061      2.00000
     28       2.4084      2.00000
     29       2.4709      2.00000
     30       2.4781      2.00000
     31       2.5697      2.00000
     32       3.1916      2.00000
     33       4.3501      2.00000
     34       4.3547      2.00000
     35       4.4923      2.00000
     36       5.2900      0.00000
     37       5.4546      0.00000
     38       5.7460      0.00000
     39       5.8335      0.00000
     40       5.8929      0.00000
     41       5.9708      0.00000
     42       6.3339      0.00000
     43       6.4178      0.00000
     44       6.5235      0.00000
     45       6.5349      0.00000
     46       6.6292      0.00000
     47       7.9367      0.00000
     48       8.1770      0.00000

 soft charge-density along one line, spin component           1
         0         1         2         3         4         5         6         7         8         9
 total charge-density along one line

------------------------ aborting loop because EDIFF is reached ----------------------------------------

  FREE ENERGIE OF THE ION-ELECTRON SYSTEM (eV)
  free  energy   TOTEN  =      -140.52712483 eV

  energy  without entropy=     -140.52545502  energy(sigma->0) =     -140.52628993

 writing wavefunctions