 vasp.6.2.0 18Jan21 (build Jan 05 2022 15:41:44) complex

 executed on             LinuxIFC date 2025.05.07  18:42:41

 INCAR:
   SYSTEM = routine with relax: pwdword
   ICHARG = 2
   NPAR = 6
   KPAR = 2
   NCORE = 2
   ADDGRID = T
   PREC = Acc
   ENCUT = 600
   METAGGA = R2SCAN
   LASPH = .TRUE.
   LMIXTAU = .FALSE.
   ALGO = A
   EDIFF = 1E-9
   NELM = 100
   NELMIN = 6
   IALGO = 38
   LREAL = F
   NSW = 0
   ISIF = -1
   ISMEAR = 0
   SIGMA = 0.02

 POTCAR:    PAW_PBE B 06Sep2000
 POTCAR:    PAW_PBE Mo_sv 02Feb2006
 POTCAR:    PAW_PBE Si 05Jan2001
|           W    W    AA    RRRRR   N    N  II  N    N   GGGG   !!!           |
|           W    W   A  A   R    R  NN   N  II  NN   N  G    G  !!!           |
|           W    W  A    A  R    R  N N  N  II  N N  N  G       !!!           |
|           W WW W  AAAAAA  RRRRR   N  N N  II  N  N N  G  GGG   !            |
|           WW  WW  A    A  R   R   N   NN  II  N   NN  G    G                |
|           W    W  A    A  R    R  N    N  II  N    N   GGGG   !!!           |
|     For optimal performance we recommend to set                             |
|       NCORE = 2 up to number-of-cores-per-socket                            |
|     This setting can greatly improve the performance of VASP for DFT.       |
|     The default, NCORE=1 might be grossly inefficient on modern             |
|     multi-core architectures or massively parallel machines. Do your        |
|     Unfortunately you need to use the default for GW and RPA                |
|     calculations (for HF NCORE is supported but not extensively tested      |
|     yet).                                                                   |

 POTCAR:    PAW_PBE B 06Sep2000
   VRHFIN =B: s2p1

   TITEL  = PAW_PBE B 06Sep2000
   POMASS =   10.811; ZVAL   =    3.000    mass and valenz
   ENMAX  =  318.614; ENMIN  =  238.960 eV

 POTCAR:    PAW_PBE Mo_sv 02Feb2006
   VRHFIN =Mo: 4p5s4d

   TITEL  = PAW_PBE Mo_sv 02Feb2006
   POMASS =   95.940; ZVAL   =   14.000    mass and valenz
   ENMAX  =  242.676; ENMIN  =  182.007 eV

 POTCAR:    PAW_PBE Si 05Jan2001
   VRHFIN =Si: s2p2

   TITEL  = PAW_PBE Si 05Jan2001
   POMASS =   28.085; ZVAL   =    4.000    mass and valenz
   ENMAX  =  245.345; ENMIN  =  184.009 eV

  PAW_PBE B 06Sep2000                   :
  PAW_PBE Mo_sv 02Feb2006               :
  PAW_PBE Si 05Jan2001                  :

 POSCAR: EA166
  positions in direct lattice

 METAGGA = R2SCA    LMAXTAU =  6    LMIXTAU =  F

 ion  position               nearest neighbor table
   1  0.000  0.500  0.500-   4 1.99   6 1.99   5 2.01   3 2.01   7 2.02   8 2.02
   2  0.500  0.000  0.500-   4 1.99   6 1.99   7 2.01   8 2.01   3 2.02   5 2.02
   3  0.750  0.250  0.000-   1 2.01   2 2.02   4 2.83   6 2.83  10 2.83   9 2.83  10 2.83   9 2.83
                             4 2.83   6 2.83   8 2.85   7 2.85   7 2.85   8 2.85
   4  0.750  0.250  0.500-   1 1.99   2 1.99   3 2.83   7 2.83   8 2.83   5 2.83   7 2.83   8 2.83
                             3 2.83   5 2.83  10 2.85  10 2.85   9 2.85   9 2.85
   5  0.250  0.750  1.000-   1 2.01   2 2.02   6 2.83   4 2.83   9 2.83  10 2.83  10 2.83   9 2.83
                             6 2.83   4 2.83   7 2.85   8 2.85   8 2.85   7 2.85
   6  0.250  0.750  0.500-   1 1.99   2 1.99   5 2.83   7 2.83   8 2.83   3 2.83   7 2.83   8 2.83
                             5 2.83   3 2.83  10 2.85   9 2.85   9 2.85  10 2.85
   7  0.250  0.250  0.500-   2 2.01   1 2.02   4 2.83   6 2.83   9 2.83   9 2.83  10 2.83  10 2.83
                             4 2.83   6 2.83   5 2.85   3 2.85   5 2.85   3 2.85
   8  0.750  0.750  0.500-   2 2.01   1 2.02   4 2.83   6 2.83  10 2.83  10 2.83   9 2.83   9 2.83
                             4 2.83   6 2.83   5 2.85   3 2.85   3 2.85   5 2.85
   9  0.250  0.250  0.000-   3 2.83   5 2.83   7 2.83   7 2.83   3 2.83   5 2.83   8 2.83   8 2.83
                             4 2.85   6 2.85   4 2.85   6 2.85
  10  0.750  0.750  0.000-   3 2.83   5 2.83   8 2.83   8 2.83   3 2.83   5 2.83   7 2.83   7 2.83
                             4 2.85   4 2.85   6 2.85   6 2.85

  LATTYP: Found a body centered tetragonal cell.
 ALAT       =     5.6976410075
 C/A-ratio  =     1.3938808691

  Lattice vectors:

 A1 = (   4.9223755700,   0.0000000000,  -2.7874417052)
 A2 = (  -1.6725846182,   4.6294969432,  -2.7874417052)
 A3 = (   0.0000000000,   0.0000000000,   5.6568200000)

Analysis of symmetry for initial positions (statically):
 Subroutine PRICEL returns:
 Original cell was already a primitive cell.

 Routine SETGRP: Setting up the symmetry group for a
 body centered tetragonal supercell.

 Subroutine GETGRP returns: Found 16 space group operations
 (whereof  8 operations were pure point group operations)
 out of a pool of 16 trial point group operations.

The static configuration has the point symmetry C_4h.
 The point group associated with its full space group is D_4h.

Analysis of symmetry for dynamics (positions and initial velocities):
 Subroutine PRICEL returns:
 Original cell was already a primitive cell.

 Routine SETGRP: Setting up the symmetry group for a
 body centered tetragonal supercell.

 Subroutine GETGRP returns: Found 16 space group operations
 (whereof  8 operations were pure point group operations)
 out of a pool of 16 trial point group operations.

The dynamic configuration has the point symmetry C_4h.
 The point group associated with its full space group is D_4h.

 Subroutine INISYM returns: Found 16 space group operations
 (whereof  8 operations are pure point group operations),
 and found     1 'primitive' translations

                                     Primitive cell

  volume of cell :     128.9083

  direct lattice vectors                    reciprocal lattice vectors
     4.922375570  0.000000000 -2.787441705     0.203153942  0.073397210  0.000000000
    -1.672584618  4.629496943 -2.787441705     0.000000000  0.216006191  0.000000000
     0.000000000  0.000000000  5.656820000     0.100105672  0.142605759  0.176777766

  length of vectors
     5.656820000  5.656820000  5.656820000     0.216006191  0.216006191  0.248209441

  position of ions in fractional coordinates (direct lattice)
     0.000000000  0.500000000  0.500000000
     0.500000000  0.000000000  0.500000000
     0.750220000  0.250220000  0.000440000
     0.750000000  0.250000000  0.500000000
     0.249780000  0.749780000  0.999560000
     0.250000000  0.750000000  0.500000000
     0.250220000  0.249780000  0.500000000
     0.749780000  0.750220000  0.500000000
     0.250000000  0.250000000  0.000000000
     0.750000000  0.750000000  0.000000000

  ion indices of the primitive-cell ions
   primitive index   ion index
                 1           1
                 2           2
                 3           3
                 4           4
                 5           5
                 6           6
                 7           7
                 8           8
                 9           9
                10          10

 KPOINTS: EA

Automatic generation of k-mesh.
 Grid dimensions read from file:
 generate k-points for:    8    8    9

 Generating k-lattice:

  Cartesian coordinates                     Fractional coordinates (reciprocal lattice)
     0.025394243  0.009174651  0.000000000     0.125000000  0.000000000  0.000000000
     0.000000000  0.027000774  0.000000000     0.000000000  0.125000000  0.000000000
     0.011122852  0.015845084  0.019641974     0.000000000  0.000000000  0.111111111

  Length of vectors
     0.027000774  0.027000774  0.027578827

  Shift w.r.t. Gamma in fractional coordinates (k-lattice)
     0.000000000  0.000000000  0.000000000

 WARNING: IBZKPT: internal override: KBLOWUP is changed to .FALSE.
      ... skipping the blow-up phase ...

 Subroutine IBZKPT returns following result:

 Found    165 irreducible k-points:

 Following reciprocal coordinates:
            Coordinates               Weight
  0.000000  0.000000  0.000000      1.000000
  0.125000  0.000000  0.000000      4.000000
  0.250000  0.000000  0.000000      4.000000
  0.375000 -0.000000  0.000000      4.000000
  0.500000  0.000000  0.000000      2.000000
  0.125000  0.125000  0.000000      2.000000
  0.250000  0.125000  0.000000      4.000000
  0.375000  0.125000  0.000000      4.000000
  0.500000  0.125000  0.000000      4.000000
 -0.375000  0.125000  0.000000      4.000000
 -0.250000  0.125000  0.000000      4.000000
 -0.125000  0.125000  0.000000      2.000000
  0.250000  0.250000  0.000000      2.000000
  0.375000  0.250000  0.000000      4.000000
  0.500000  0.250000  0.000000      4.000000
 -0.375000  0.250000  0.000000      4.000000
 -0.250000  0.250000  0.000000      2.000000
  0.375000  0.375000  0.000000      2.000000
  0.500000  0.375000  0.000000      4.000000
 -0.375000  0.375000  0.000000      2.000000
  0.500000  0.500000  0.000000      1.000000
 -0.000000 -0.000000  0.111111      2.000000
  0.125000  0.000000  0.111111      4.000000
  0.250000 -0.000000  0.111111      4.000000
  0.375000 -0.000000  0.111111      4.000000
  0.500000 -0.000000  0.111111      4.000000
 -0.375000  0.000000  0.111111      4.000000
 -0.250000  0.000000  0.111111      4.000000
 -0.125000 -0.000000  0.111111      4.000000
  0.125000  0.125000  0.111111      2.000000
  0.250000  0.125000  0.111111      4.000000
  0.375000  0.125000  0.111111      4.000000
  0.500000  0.125000  0.111111      4.000000
 -0.375000  0.125000  0.111111      4.000000
 -0.250000  0.125000  0.111111      4.000000
 -0.125000  0.125000  0.111111      4.000000
  0.250000  0.250000  0.111111      2.000000
  0.375000  0.250000  0.111111      4.000000
  0.500000  0.250000  0.111111      4.000000
 -0.375000  0.250000  0.111111      4.000000
 -0.250000  0.250000  0.111111      4.000000
 -0.125000  0.250000  0.111111      4.000000
  0.375000  0.375000  0.111111      2.000000
  0.500000  0.375000  0.111111      4.000000
 -0.375000  0.375000  0.111111      4.000000
 -0.250000  0.375000  0.111111      4.000000
 -0.125000  0.375000  0.111111      4.000000
  0.500000  0.500000  0.111111      2.000000
 -0.375000  0.500000  0.111111      4.000000
 -0.250000  0.500000  0.111111      4.000000
 -0.125000  0.500000  0.111111      4.000000
 -0.375000 -0.375000  0.111111      2.000000
 -0.250000 -0.375000  0.111111      4.000000
 -0.125000 -0.375000  0.111111      4.000000
 -0.250000 -0.250000  0.111111      2.000000
 -0.125000 -0.250000  0.111111      4.000000
 -0.125000 -0.125000  0.111111      2.000000
 -0.000000 -0.000000  0.222222      2.000000
  0.125000 -0.000000  0.222222      4.000000
  0.250000 -0.000000  0.222222      4.000000
[...]
  0.375000  0.375000  0.444444      2.000000
  0.500000  0.375000  0.444444      4.000000
 -0.375000  0.375000  0.444444      4.000000
 -0.250000  0.375000  0.444444      4.000000
 -0.125000  0.375000  0.444444      4.000000
  0.500000  0.500000  0.444444      2.000000
 -0.375000  0.500000  0.444444      4.000000
 -0.250000  0.500000  0.444444      4.000000
 -0.125000  0.500000  0.444444      4.000000
 -0.375000 -0.375000  0.444444      2.000000
 -0.250000 -0.375000  0.444444      4.000000
 -0.125000 -0.375000  0.444444      4.000000
[...]
  -0.25000000  0.25000000  0.00000000       0.003
   0.37500000  0.37500000  0.00000000       0.003
   0.50000000  0.37500000  0.00000000       0.007
  -0.37500000  0.37500000  0.00000000       0.003
   0.50000000  0.50000000  0.00000000       0.002
  -0.00000000 -0.00000000  0.11111111       0.003
   0.12500000  0.00000000  0.11111111       0.007
   0.25000000 -0.00000000  0.11111111       0.007
   0.37500000 -0.00000000  0.11111111       0.007
   0.50000000 -0.00000000  0.11111111       0.007
  -0.37500000  0.00000000  0.11111111       0.007
  -0.25000000  0.00000000  0.11111111       0.007
  -0.12500000 -0.00000000  0.11111111       0.007
   0.12500000  0.12500000  0.11111111       0.003
   0.25000000  0.12500000  0.11111111       0.007
   0.37500000  0.12500000  0.11111111       0.007
   0.50000000  0.12500000  0.11111111       0.007
  -0.37500000  0.12500000  0.11111111       0.007
  -0.25000000  0.12500000  0.11111111       0.007
  -0.12500000  0.12500000  0.11111111       0.007
   0.25000000  0.25000000  0.11111111       0.003
   0.37500000  0.25000000  0.11111111       0.007
   0.50000000  0.25000000  0.11111111       0.007
  -0.37500000  0.25000000  0.11111111       0.007
  -0.25000000  0.25000000  0.11111111       0.007
  -0.12500000  0.25000000  0.11111111       0.007
   0.37500000  0.37500000  0.11111111       0.003
   0.50000000  0.37500000  0.11111111       0.007
  -0.37500000  0.37500000  0.11111111       0.007
  -0.25000000  0.37500000  0.11111111       0.007
  -0.12500000  0.37500000  0.11111111       0.007
   0.50000000  0.50000000  0.11111111       0.003
  -0.37500000  0.50000000  0.11111111       0.007
  -0.25000000  0.50000000  0.11111111       0.007
  -0.12500000  0.50000000  0.11111111       0.007
  -0.37500000 -0.37500000  0.11111111       0.003
  -0.25000000 -0.37500000  0.11111111       0.007
  -0.12500000 -0.37500000  0.11111111       0.007
  -0.25000000 -0.25000000  0.11111111       0.003
  -0.12500000 -0.25000000  0.11111111       0.007
  -0.12500000 -0.12500000  0.11111111       0.003
  -0.00000000 -0.00000000  0.22222222       0.003
   0.12500000 -0.00000000  0.22222222       0.007
   0.25000000 -0.00000000  0.22222222       0.007
[...]
   0.37500000  0.37500000  0.44444444       0.003
   0.50000000  0.37500000  0.44444444       0.007
  -0.37500000  0.37500000  0.44444444       0.007
  -0.25000000  0.37500000  0.44444444       0.007
  -0.12500000  0.37500000  0.44444444       0.007
   0.50000000  0.50000000  0.44444444       0.003
  -0.37500000  0.50000000  0.44444444       0.007
  -0.25000000  0.50000000  0.44444444       0.007
  -0.12500000  0.50000000  0.44444444       0.007
  -0.37500000 -0.37500000  0.44444444       0.003
  -0.25000000 -0.37500000  0.44444444       0.007
  -0.12500000 -0.37500000  0.44444444       0.007
  -0.25000000 -0.25000000  0.44444444       0.003
  -0.12500000 -0.25000000  0.44444444       0.007
  -0.12500000 -0.12500000  0.44444444       0.003

 position of ions in fractional coordinates (direct lattice)
   0.00000000  0.50000000  0.50000000
   0.50000000  0.00000000  0.50000000
   0.75022000  0.25022000  0.00044000
   0.75000000  0.25000000  0.50000000
   0.24978000  0.74978000  0.99956000
   0.25000000  0.75000000  0.50000000
   0.25022000  0.24978000  0.50000000
   0.74978000  0.75022000  0.50000000
   0.25000000  0.25000000  0.00000000
   0.75000000  0.75000000  0.00000000

 position of ions in cartesian coordinates  (Angst):
  -0.83629231  2.31474847  1.43468915
   2.46118779  0.00000000  1.43468915
   3.27435048  1.15839273 -2.78617918
   3.27363552  1.15737424  0.04096829
  -0.02455953  3.47110422  2.86811577
  -0.02384457  3.47212271  0.04096829
   0.81389863  1.15635575  1.43468915
   2.43589232  3.47314120 -1.35275256
   0.81244774  1.15737424 -1.39372085
   2.43734321  3.47212271 -4.18116256

 k-point   1 :   0.0000 0.0000 0.0000  plane waves:    4283
 k-point   2 :   0.1250 0.0000 0.0000  plane waves:    4312
 k-point   3 :   0.2500 0.0000 0.0000  plane waves:    4301
 k-point   4 :   0.3750-0.0000 0.0000  plane waves:    4300
 k-point   5 :   0.5000 0.0000 0.0000  plane waves:    4308
 k-point   6 :   0.1250 0.1250 0.0000  plane waves:    4323
 k-point   7 :   0.2500 0.1250 0.0000  plane waves:    4303
 k-point   8 :   0.3750 0.1250 0.0000  plane waves:    4300
 k-point   9 :   0.5000 0.1250 0.0000  plane waves:    4310
 k-point  10 :  -0.3750 0.1250 0.0000  plane waves:    4305
 k-point  11 :  -0.2500 0.1250 0.0000  plane waves:    4307
 k-point  12 :  -0.1250 0.1250 0.0000  plane waves:    4320
 k-point  13 :   0.2500 0.2500 0.0000  plane waves:    4313
 k-point  14 :   0.3750 0.2500 0.0000  plane waves:    4309
 k-point  15 :   0.5000 0.2500 0.0000  plane waves:    4305
 k-point  16 :  -0.3750 0.2500 0.0000  plane waves:    4302
 k-point  17 :  -0.2500 0.2500 0.0000  plane waves:    4302
 k-point  18 :   0.3750 0.3750 0.0000  plane waves:    4291
 k-point  19 :   0.5000 0.3750 0.0000  plane waves:    4289
 k-point  20 :  -0.3750 0.3750 0.0000  plane waves:    4304
 k-point  21 :   0.5000 0.5000 0.0000  plane waves:    4308
 k-point  22 :  -0.0000-0.0000 0.1111  plane waves:    4324
 k-point  23 :   0.1250 0.0000 0.1111  plane waves:    4313
 k-point  24 :   0.2500-0.0000 0.1111  plane waves:    4301
 k-point  25 :   0.3750-0.0000 0.1111  plane waves:    4310
 k-point  26 :   0.5000-0.0000 0.1111  plane waves:    4303
 k-point  27 :  -0.3750 0.0000 0.1111  plane waves:    4299
 k-point  28 :  -0.2500 0.0000 0.1111  plane waves:    4321
 k-point  29 :  -0.1250-0.0000 0.1111  plane waves:    4314
 k-point  30 :   0.1250 0.1250 0.1111  plane waves:    4294
 k-point  31 :   0.2500 0.1250 0.1111  plane waves:    4307
 k-point  32 :   0.3750 0.1250 0.1111  plane waves:    4319
 k-point  33 :   0.5000 0.1250 0.1111  plane waves:    4305
 k-point  34 :  -0.3750 0.1250 0.1111  plane waves:    4297
 k-point  35 :  -0.2500 0.1250 0.1111  plane waves:    4308
 k-point  36 :  -0.1250 0.1250 0.1111  plane waves:    4321
 k-point  37 :   0.2500 0.2500 0.1111  plane waves:    4299
 k-point  38 :   0.3750 0.2500 0.1111  plane waves:    4293
 k-point  39 :   0.5000 0.2500 0.1111  plane waves:    4291
 k-point  40 :  -0.3750 0.2500 0.1111  plane waves:    4297
 k-point  41 :  -0.2500 0.2500 0.1111  plane waves:    4297
 k-point  42 :  -0.1250 0.2500 0.1111  plane waves:    4302
 k-point  43 :   0.3750 0.3750 0.1111  plane waves:    4286
 k-point  44 :   0.5000 0.3750 0.1111  plane waves:    4287
 k-point  45 :  -0.3750 0.3750 0.1111  plane waves:    4291
 k-point  46 :  -0.2500 0.3750 0.1111  plane waves:    4305
 k-point  47 :  -0.1250 0.3750 0.1111  plane waves:    4304
 k-point  48 :   0.5000 0.5000 0.1111  plane waves:    4296
 k-point  49 :  -0.3750 0.5000 0.1111  plane waves:    4293
 k-point  50 :  -0.2500 0.5000 0.1111  plane waves:    4302
 k-point  51 :  -0.1250 0.5000 0.1111  plane waves:    4318
 k-point  52 :  -0.3750-0.3750 0.1111  plane waves:    4293
 k-point  53 :  -0.2500-0.3750 0.1111  plane waves:    4295
 k-point  54 :  -0.1250-0.3750 0.1111  plane waves:    4299
 k-point  55 :  -0.2500-0.2500 0.1111  plane waves:    4304
 k-point  56 :  -0.1250-0.2500 0.1111  plane waves:    4316
 k-point  57 :  -0.1250-0.1250 0.1111  plane waves:    4318
 k-point  58 :  -0.0000-0.0000 0.2222  plane waves:    4308
 k-point  59 :   0.1250-0.0000 0.2222  plane waves:    4294
 k-point  60 :   0.2500-0.0000 0.2222  plane waves:    4304
[...]
 k-point 151 :   0.3750 0.3750 0.4444  plane waves:    4295
 k-point 152 :   0.5000 0.3750 0.4444  plane waves:    4303
 k-point 153 :  -0.3750 0.3750 0.4444  plane waves:    4308
 k-point 154 :  -0.2500 0.3750 0.4444  plane waves:    4296
 k-point 155 :  -0.1250 0.3750 0.4444  plane waves:    4302
 k-point 156 :   0.5000 0.5000 0.4444  plane waves:    4298
 k-point 157 :  -0.3750 0.5000 0.4444  plane waves:    4309
 k-point 158 :  -0.2500 0.5000 0.4444  plane waves:    4294
 k-point 159 :  -0.1250 0.5000 0.4444  plane waves:    4304
 k-point 160 :  -0.3750-0.3750 0.4444  plane waves:    4301
 k-point 161 :  -0.2500-0.3750 0.4444  plane waves:    4288
 k-point 162 :  -0.1250-0.3750 0.4444  plane waves:    4298
 k-point 163 :  -0.2500-0.2500 0.4444  plane waves:    4309
 k-point 164 :  -0.1250-0.2500 0.4444  plane waves:    4311
 k-point 165 :  -0.1250-0.1250 0.4444  plane waves:    4305

 maximum and minimum number of plane-waves per node :      2173     2135

 maximum number of plane-waves:      4324
 maximum index in each direction:
   IXMAX=   11   IYMAX=   11   IZMAX=   11
   IXMIN=  -11   IYMIN=  -11   IZMIN=  -11

 parallel 3D FFT for wavefunctions:
    minimum data exchange during FFTs selected (reduces bandwidth)
 parallel 3D FFT for charge:
    minimum data exchange during FFTs selected (reduces bandwidth)

 Broyden mixing: mesh for mixing (old mesh)
   NGX = 23   NGY = 23   NGZ = 23
  (NGX  = 96   NGY  = 96   NGZ  = 96)
  gives a total of  12167 points

 initial charge density was supplied:
 charge density of overlapping atoms calculated
 number of electron      98.0000000 magnetization
 keeping initial charge density in first step

 Maximum index for augmentation-charges        24334 (set IRDMAX)

 First call to EWALD:  gamma=   0.351
 Maximum number of real-space cells 3x 3x 3
 Maximum number of reciprocal cells 3x 3x 3

--------------------------------------- Iteration      1(   1)  ---------------------------------------

 eigenvalue-minimisations  : 19836
 total energy-change (2. order) : 0.1106891E+04  (-0.6811063E+04)
 number of electron      98.0000000 magnetization
 augmentation part       98.0000000 magnetization

 Free energy of the ion-electron system (eV)
  alpha Z        PSCENC =       648.09201945
  Ewald energy   TEWEN  =     -9565.46739688
  -Hartree energ DENC   =     -2338.58202688
  -exchange      EXHF   =         0.00000000
  -V(xc)+E(xc)   XCENC  =       471.66057727
  PAW double counting   =      9166.97638771    -9126.13493418
  entropy T*S    EENTRO =        -0.00053255
  eigenvalues    EBANDS =       328.17928740
  atomic energy  EATOM  =     11522.16744521
  free energy    TOTEN  =      1106.89082656 eV

  energy without entropy =     1106.89135911  energy(sigma->0) =     1106.89109284

[...]

 eigenvalue-minimisations  : 21792
 total energy-change (2. order) :-0.1287417E+04  (-0.1252163E+04)
 number of electron      98.0000000 magnetization
 augmentation part       98.0000000 magnetization

[...]

 eigenvalue-minimisations  :     0
 total energy-change (2. order) : 0.6728442E-08  (-0.1410715E-07)
 number of electron      98.0000000 magnetization
 augmentation part       14.3584205 magnetization

[...]

--------------------------------------- Iteration      1(  37)  ---------------------------------------

 eigenvalue-minimisations  :     0
 total energy-change (2. order) :-0.2710294E-09  (-0.1084655E-09)
 number of electron      98.0000000 magnetization
 augmentation part       14.3584230 magnetization

 Free energy of the ion-electron system (eV)
  alpha Z        PSCENC =       648.09201945
  Ewald energy   TEWEN  =     -9565.46739688
  -Hartree energ DENC   =     -2214.12687897
  -exchange      EXHF   =         0.00000000
  -V(xc)+E(xc)   XCENC  =       480.88960300
  PAW double counting   =     13077.83936222   -13058.49724989
  entropy T*S    EENTRO =        -0.00136126
  eigenvalues    EBANDS =     -1075.81120254
  atomic energy  EATOM  =     11522.16744521
  free energy    TOTEN  =      -184.91565967 eV

  energy without entropy =     -184.91429841  energy(sigma->0) =     -184.91497904

  average scaling for gradient   0.8493

 average (electrostatic) potential at core
  the test charge radii are     0.7672  1.0818  0.9892
  (the norm of the test charge is              1.0000)
       1 -21.1052       2 -21.1052       3 -74.4622       4 -74.4491       5 -74.4622
       6 -74.4491       7 -74.4624       8 -74.4624       9 -80.6421      10 -80.6421

 E-fermi :  12.2299     XC(G=0): -14.1228     alpha+bet :-19.9858

 Fermi energy:        12.2298893362

 k-point     1 :       0.0000    0.0000    0.0000
  band No.  band energies     occupation
      1     -50.7546      2.00000
      2     -50.5787      2.00000
      3     -50.5779      2.00000
      4     -50.5778      2.00000
      5     -50.4952      2.00000
      6     -50.4856      2.00000
      7     -25.1996      2.00000
      8     -24.6774      2.00000
      9     -24.6577      2.00000
     10     -24.6576      2.00000
     11     -24.4412      2.00000
     12     -24.4411      2.00000
     13     -24.4030      2.00000
     14     -23.9144      2.00000
     15     -23.9025      2.00000
     16     -23.9024      2.00000
     17     -23.7344      2.00000
     18     -23.7111      2.00000
     19     -23.6548      2.00000
     20     -23.6429      2.00000
     21     -23.6427      2.00000
     22     -23.6007      2.00000
     23     -23.5863      2.00000
     24     -23.5862      2.00000
     25       0.4315      2.00000
     26       1.9290      2.00000
     27       2.7922      2.00000
     28       4.8271      2.00000
     29       4.8271      2.00000
     30       4.8938      2.00000
     31       7.3983      2.00000
     32       7.6567      2.00000
     33       7.6568      2.00000
     34       7.6686      2.00000
     35       7.8958      2.00000
     36       7.9553      2.00000
     37       9.2601      2.00000
     38       9.2930      2.00000
     39       9.2930      2.00000
     40      10.5760      2.00000
     41      10.5799      2.00000
     42      10.5800      2.00000
     43      10.5865      2.00000
     44      10.6963      2.00000
     45      10.6965      2.00000
     46      10.8108      2.00000
     47      10.8594      2.00000
     48      10.8596      2.00000
     49      12.4483      0.00000
     50      12.4483      0.00000
     51      12.5516      0.00000
     52      13.3570      0.00000
     53      13.5102      0.00000
     54      13.5584      0.00000
     55      13.6902      0.00000
     56      14.1206      0.00000
     57      14.1207      0.00000
     58      14.3134      0.00000
     59      14.9221      0.00000
     60      16.2516      0.00000

[...]

 k-point   165 :      -0.1250   -0.1250    0.4444
  band No.  band energies     occupation
      1     -50.6967      2.00000
      2     -50.6080      2.00000
      3     -50.5788      2.00000
      4     -50.5492      2.00000
      5     -50.5451      2.00000
      6     -50.4946      2.00000
      7     -24.9055      2.00000
      8     -24.6231      2.00000
      9     -24.5302      2.00000
     10     -24.4138      2.00000
     11     -24.3631      2.00000
     12     -24.2317      2.00000
     13     -24.2175      2.00000
     14     -24.0720      2.00000
     15     -24.0710      2.00000
     16     -23.9572      2.00000
     17     -23.9123      2.00000
     18     -23.8469      2.00000
     19     -23.8026      2.00000
     20     -23.7876      2.00000
     21     -23.7276      2.00000
     22     -23.7050      2.00000
     23     -23.6994      2.00000
     24     -23.6178      2.00000
     25       1.7063      2.00000
     26       2.7968      2.00000
     27       3.2810      2.00000
     28       4.0000      2.00000
     29       5.4290      2.00000
     30       6.1055      2.00000
     31       6.6364      2.00000
     32       7.2736      2.00000
     33       7.6123      2.00000
     34       7.7021      2.00000
     35       7.7443      2.00000
     36       7.9740      2.00000
     37       8.3147      2.00000
     38       8.3401      2.00000
     39       8.4771      2.00000
     40       8.7235      2.00000
     41       9.2224      2.00000
     42       9.6510      2.00000
     43      10.3456      2.00000
     44      10.4756      2.00000
     45      11.1289      2.00000
     46      11.1561      2.00000
     47      11.2234      2.00000
     48      11.6157      2.00000
     49      11.7831      2.00000
     50      12.2661      0.01039
     51      12.6096      0.00000
     52      12.8935      0.00000
     53      13.3380      0.00000
     54      13.4025      0.00000
     55      13.7096      0.00000
     56      14.2139      0.00000
     57      14.5850      0.00000
     58      15.3543      0.00000
     59      15.7835      0.00000
     60      16.0741      0.00000

 soft charge-density along one line, spin component           1
         0         1         2         3         4         5         6         7         8         9
 total charge-density along one line

------------------------ aborting loop because EDIFF is reached ----------------------------------------

  FREE ENERGIE OF THE ION-ELECTRON SYSTEM (eV)
  free  energy   TOTEN  =      -184.91565967 eV

  energy  without entropy=     -184.91429841  energy(sigma->0) =     -184.91497904

 writing wavefunctions