 vasp.6.2.0 18Jan21 (build Jan 05 2022 15:41:44) complex

 executed on             LinuxIFC date 2025.05.07  18:26:46

 INCAR:
   SYSTEM = routine with relax: pwdword
   ICHARG = 2
   NPAR = 6
   KPAR = 2
   NCORE = 2
   ADDGRID = T
   PREC = Acc
   ENCUT = 600
   METAGGA = R2SCAN
   LASPH = .TRUE.
   LMIXTAU = .FALSE.
   ALGO = A
   EDIFF = 1E-9
   NELM = 100
   NELMIN = 6
   IALGO = 38
   LREAL = F
   NSW = 0
   ISIF = -1
   ISMEAR = 0
   SIGMA = 0.02

 POTCAR:    PAW_PBE B 06Sep2000
 POTCAR:    PAW_PBE Mo_sv 02Feb2006
 POTCAR:    PAW_PBE Si 05Jan2001
|           W    W    AA    RRRRR   N    N  II  N    N   GGGG   !!!           |
|           W    W   A  A   R    R  NN   N  II  NN   N  G    G  !!!           |
|           W    W  A    A  R    R  N N  N  II  N N  N  G       !!!           |
|           W WW W  AAAAAA  RRRRR   N  N N  II  N  N N  G  GGG   !            |
|           WW  WW  A    A  R   R   N   NN  II  N   NN  G    G                |
|           W    W  A    A  R    R  N    N  II  N    N   GGGG   !!!           |
|     For optimal performance we recommend to set                             |
|       NCORE = 2 up to number-of-cores-per-socket                            |
|     This setting can greatly improve the performance of VASP for DFT.       |
|     The default, NCORE=1 might be grossly inefficient on modern             |
|     multi-core architectures or massively parallel machines. Do your        |
|     Unfortunately you need to use the default for GW and RPA                |
|     calculations (for HF NCORE is supported but not extensively tested      |
|     yet).                                                                   |

 POTCAR:    PAW_PBE B 06Sep2000
   VRHFIN =B: s2p1

   TITEL  = PAW_PBE B 06Sep2000
   POMASS =   10.811; ZVAL   =    3.000    mass and valenz
   ENMAX  =  318.614; ENMIN  =  238.960 eV

 POTCAR:    PAW_PBE Mo_sv 02Feb2006
   VRHFIN =Mo: 4p5s4d

   TITEL  = PAW_PBE Mo_sv 02Feb2006
   POMASS =   95.940; ZVAL   =   14.000    mass and valenz
   ENMAX  =  242.676; ENMIN  =  182.007 eV

 POTCAR:    PAW_PBE Si 05Jan2001
   VRHFIN =Si: s2p2

   TITEL  = PAW_PBE Si 05Jan2001
   POMASS =   28.085; ZVAL   =    4.000    mass and valenz
   ENMAX  =  245.345; ENMIN  =  184.009 eV

  PAW_PBE B 06Sep2000                   :
  PAW_PBE Mo_sv 02Feb2006               :
  PAW_PBE Si 05Jan2001                  :

 POSCAR: EA156
  positions in direct lattice

 METAGGA = R2SCA    LMAXTAU =  6    LMIXTAU =  F

 ion  position               nearest neighbor table
   1  0.000  0.000  0.000-   4 2.00   6 2.00   3 2.02   5 2.02   8 2.02   7 2.02
   2  0.500  0.500  0.000-   4 2.00   6 2.00   5 2.02   3 2.02   8 2.02   7 2.02
   3  0.246  0.254  0.500-   2 2.02   1 2.02  10 2.82   9 2.82   6 2.84   6 2.84   4 2.84   4 2.84
                             8 2.85   7 2.85   8 2.85   7 2.85  10 2.86   9 2.86
   4  0.250  0.250  0.000-   1 2.00   2 2.00   5 2.84   5 2.84   8 2.84   7 2.84   3 2.84   3 2.84
                             8 2.84   7 2.84  10 2.85   9 2.85   9 2.85  10 2.85
   5  0.754  0.746  0.500-   1 2.02   2 2.02  10 2.82   9 2.82   4 2.84   4 2.84   6 2.84   6 2.84
                             7 2.85   8 2.85   7 2.85   8 2.85   9 2.86  10 2.86
   6  0.750  0.750  0.000-   1 2.00   2 2.00   3 2.84   3 2.84   7 2.84   8 2.84   5 2.84   5 2.84
                             8 2.84   7 2.84  10 2.85  10 2.85   9 2.85   9 2.85
   7  0.254  0.754  0.007-   1 2.02   2 2.02  10 2.82   9 2.82   6 2.84   4 2.84   4 2.84   6 2.84
                             5 2.85   3 2.85   5 2.85   3 2.85  10 2.86   9 2.86
   8  0.746  0.246  0.993-   1 2.02   2 2.02   9 2.82  10 2.82   4 2.84   6 2.84   4 2.84   6 2.84
                             3 2.85   5 2.85   5 2.85   3 2.85   9 2.86  10 2.86
   9  0.250  0.750  0.500-   8 2.82   5 2.82   3 2.82   7 2.82   4 2.85   6 2.85   4 2.85   6 2.85
                             8 2.86   7 2.86   5 2.86   3 2.86
  10  0.750  0.250  0.500-   7 2.82   5 2.82   3 2.82   8 2.82   4 2.85   6 2.85   6 2.85   4 2.85
                             7 2.86   8 2.86   3 2.86   5 2.86

  LATTYP: Found a base centered monoclinic cell.
 ALAT       =     7.9971208447
 B/A-ratio  =     1.0083125502
 C/A-ratio  =     0.7100419276
 COS(beta)  =    -0.7041739018

  Lattice vectors:

 A1 = (   4.9310848026,   0.0000000000,  -2.8157216706)
 A2 = (  -1.6619473826,   4.6425777568,  -2.8157216706)
 A3 = (   0.0000000000,   0.0000000000,   5.6783700000)

Analysis of symmetry for initial positions (statically):
 Subroutine PRICEL returns:
 Original cell was already a primitive cell.

 Routine SETGRP: Setting up the symmetry group for a
 base centered monoclinic supercell.

 Subroutine GETGRP returns: Found  4 space group operations
 (whereof  2 operations were pure point group operations)
 out of a pool of  4 trial point group operations.

The static configuration has the point symmetry S_2 .
 The point group associated with its full space group is C_2h.

Analysis of symmetry for dynamics (positions and initial velocities):
 Subroutine PRICEL returns:
 Original cell was already a primitive cell.

 Routine SETGRP: Setting up the symmetry group for a
 base centered monoclinic supercell.

 Subroutine GETGRP returns: Found  4 space group operations
 (whereof  2 operations were pure point group operations)
 out of a pool of  4 trial point group operations.

The dynamic configuration has the point symmetry S_2 .
 The point group associated with its full space group is C_2h.

 Subroutine INISYM returns: Found  4 space group operations
 (whereof  2 operations are pure point group operations),
 and found     1 'primitive' translations

                                     Primitive cell

  volume of cell :     129.9946

  direct lattice vectors                    reciprocal lattice vectors
     4.931084803  0.000000000 -2.815721671     0.202795133  0.072596488  0.000000000
    -1.661947383  4.642577757 -2.815721671     0.000000000  0.215397577  0.000000000
     0.000000000  0.000000000  5.678370000     0.100559606  0.142807026  0.176106876

  length of vectors
     5.678370000  5.678370000  5.678370000     0.215397577  0.215397577  0.248031677

  position of ions in fractional coordinates (direct lattice)
     0.000000000  0.000000000  0.000000000
     0.500000000  0.500000000  0.000000000
     0.246450000  0.253550000  0.500000000
     0.250000000  0.250000000  0.000000000
     0.753550000  0.746450000  0.500000000
     0.750000000  0.750000000  0.000000000
     0.253550000  0.753550000  0.007100000
     0.746450000  0.246450000  0.992900000
     0.250000000  0.750000000  0.500000000
     0.750000000  0.250000000  0.500000000

  ion indices of the primitive-cell ions
   primitive index   ion index
                 1           1
                 2           2
                 3           3
                 4           4
                 5           5
                 6           6
                 7           7
                 8           8
                 9           9
                10          10

 KPOINTS: EA

Automatic generation of k-mesh.
 Grid dimensions read from file:
 generate k-points for:    8    8    9

 Generating k-lattice:

  Cartesian coordinates                     Fractional coordinates (reciprocal lattice)
     0.025349392  0.009074561  0.000000000     0.125000000 -0.000000000  0.000000000
     0.000000000  0.026924697  0.000000000     0.000000000  0.125000000  0.000000000
     0.011173290  0.015867447  0.019567431     0.000000000  0.000000000  0.111111111

  Length of vectors
     0.026924697  0.026924697  0.027559075

  Shift w.r.t. Gamma in fractional coordinates (k-lattice)
     0.000000000  0.000000000  0.000000000

 Subroutine IBZKPT returns following result:

 Found    165 irreducible k-points:

 Following reciprocal coordinates:
            Coordinates               Weight
  0.000000  0.000000  0.000000      1.000000
  0.125000  0.000000  0.000000      4.000000
  0.250000  0.000000  0.000000      4.000000
  0.375000  0.000000  0.000000      4.000000
  0.500000  0.000000  0.000000      2.000000
  0.125000  0.125000  0.000000      2.000000
  0.250000  0.125000  0.000000      4.000000
  0.375000  0.125000  0.000000      4.000000
  0.500000  0.125000  0.000000      4.000000
 -0.375000  0.125000  0.000000      4.000000
 -0.250000  0.125000  0.000000      4.000000
 -0.125000  0.125000  0.000000      2.000000
  0.250000  0.250000  0.000000      2.000000
  0.375000  0.250000  0.000000      4.000000
  0.500000  0.250000  0.000000      4.000000
 -0.375000  0.250000  0.000000      4.000000
 -0.250000  0.250000  0.000000      2.000000
  0.375000  0.375000  0.000000      2.000000
  0.500000  0.375000  0.000000      4.000000
 -0.375000  0.375000  0.000000      2.000000
  0.500000  0.500000  0.000000      1.000000
  0.000000  0.000000  0.111111      2.000000
  0.125000  0.000000  0.111111      4.000000
  0.250000  0.000000  0.111111      4.000000
  0.375000  0.000000  0.111111      4.000000
  0.500000  0.000000  0.111111      4.000000
 -0.375000 -0.000000  0.111111      4.000000
 -0.250000  0.000000  0.111111      4.000000
 -0.125000  0.000000  0.111111      4.000000
  0.125000  0.125000  0.111111      2.000000
  0.250000  0.125000  0.111111      4.000000
  0.375000  0.125000  0.111111      4.000000
  0.500000  0.125000  0.111111      4.000000
 -0.375000  0.125000  0.111111      4.000000
 -0.250000  0.125000  0.111111      4.000000
 -0.125000  0.125000  0.111111      4.000000
  0.250000  0.250000  0.111111      2.000000
  0.375000  0.250000  0.111111      4.000000
  0.500000  0.250000  0.111111      4.000000
 -0.375000  0.250000  0.111111      4.000000
 -0.250000  0.250000  0.111111      4.000000
 -0.125000  0.250000  0.111111      4.000000
  0.375000  0.375000  0.111111      2.000000
  0.500000  0.375000  0.111111      4.000000
 -0.375000  0.375000  0.111111      4.000000
 -0.250000  0.375000  0.111111      4.000000
 -0.125000  0.375000  0.111111      4.000000
  0.500000  0.500000  0.111111      2.000000
 -0.375000  0.500000  0.111111      4.000000
 -0.250000  0.500000  0.111111      4.000000
 -0.125000  0.500000  0.111111      4.000000
 -0.375000 -0.375000  0.111111      2.000000
 -0.250000 -0.375000  0.111111      4.000000
 -0.125000 -0.375000  0.111111      4.000000
 -0.250000 -0.250000  0.111111      2.000000
 -0.125000 -0.250000  0.111111      4.000000
 -0.125000 -0.125000  0.111111      2.000000
  0.000000  0.000000  0.222222      2.000000
  0.125000  0.000000  0.222222      4.000000
  0.250000  0.000000  0.222222      4.000000
[...]
  0.375000  0.375000  0.444444      2.000000
  0.500000  0.375000  0.444444      4.000000
 -0.375000  0.375000  0.444444      4.000000
 -0.250000  0.375000  0.444444      4.000000
 -0.125000  0.375000  0.444444      4.000000
  0.500000  0.500000  0.444444      2.000000
 -0.375000  0.500000  0.444444      4.000000
 -0.250000  0.500000  0.444444      4.000000
 -0.125000  0.500000  0.444444      4.000000
 -0.375000 -0.375000  0.444444      2.000000
 -0.250000 -0.375000  0.444444      4.000000
 -0.125000 -0.375000  0.444444      4.000000
 -0.250000 -0.250000  0.444444      2.000000
[...]
   0.00000000  0.00000000  0.11111111       0.003
   0.12500000  0.00000000  0.11111111       0.007
   0.25000000  0.00000000  0.11111111       0.007
   0.37500000  0.00000000  0.11111111       0.007
   0.50000000  0.00000000  0.11111111       0.007
  -0.37500000 -0.00000000  0.11111111       0.007
  -0.25000000  0.00000000  0.11111111       0.007
  -0.12500000  0.00000000  0.11111111       0.007
   0.12500000  0.12500000  0.11111111       0.003
   0.25000000  0.12500000  0.11111111       0.007
   0.37500000  0.12500000  0.11111111       0.007
   0.50000000  0.12500000  0.11111111       0.007
  -0.37500000  0.12500000  0.11111111       0.007
  -0.25000000  0.12500000  0.11111111       0.007
  -0.12500000  0.12500000  0.11111111       0.007
   0.25000000  0.25000000  0.11111111       0.003
   0.37500000  0.25000000  0.11111111       0.007
   0.50000000  0.25000000  0.11111111       0.007
  -0.37500000  0.25000000  0.11111111       0.007
  -0.25000000  0.25000000  0.11111111       0.007
  -0.12500000  0.25000000  0.11111111       0.007
   0.37500000  0.37500000  0.11111111       0.003
   0.50000000  0.37500000  0.11111111       0.007
  -0.37500000  0.37500000  0.11111111       0.007
  -0.25000000  0.37500000  0.11111111       0.007
  -0.12500000  0.37500000  0.11111111       0.007
   0.50000000  0.50000000  0.11111111       0.003
  -0.37500000  0.50000000  0.11111111       0.007
  -0.25000000  0.50000000  0.11111111       0.007
  -0.12500000  0.50000000  0.11111111       0.007
  -0.37500000 -0.37500000  0.11111111       0.003
  -0.25000000 -0.37500000  0.11111111       0.007
  -0.12500000 -0.37500000  0.11111111       0.007
  -0.25000000 -0.25000000  0.11111111       0.003
  -0.12500000 -0.25000000  0.11111111       0.007
  -0.12500000 -0.12500000  0.11111111       0.003
   0.00000000  0.00000000  0.22222222       0.003
   0.12500000  0.00000000  0.22222222       0.007
   0.25000000  0.00000000  0.22222222       0.007
[...]
   0.37500000  0.37500000  0.44444444       0.003
   0.50000000  0.37500000  0.44444444       0.007
  -0.37500000  0.37500000  0.44444444       0.007
  -0.25000000  0.37500000  0.44444444       0.007
  -0.12500000  0.37500000  0.44444444       0.007
   0.50000000  0.50000000  0.44444444       0.003
  -0.37500000  0.50000000  0.44444444       0.007
  -0.25000000  0.50000000  0.44444444       0.007
  -0.12500000  0.50000000  0.44444444       0.007
  -0.37500000 -0.37500000  0.44444444       0.003
  -0.25000000 -0.37500000  0.44444444       0.007
  -0.12500000 -0.37500000  0.44444444       0.007
  -0.25000000 -0.25000000  0.44444444       0.003
  -0.12500000 -0.25000000  0.44444444       0.007
  -0.12500000 -0.12500000  0.44444444       0.003

 position of ions in fractional coordinates (direct lattice)
   0.00000000  0.00000000  0.00000000
   0.50000000  0.50000000  0.00000000
   0.24645000  0.25355000  0.50000000
   0.25000000  0.25000000  0.00000000
   0.75355000  0.74645000  0.50000000
   0.75000000  0.75000000  0.00000000
   0.25355000  0.75355000  0.00710000
   0.74645000  0.24645000  0.99290000
   0.25000000  0.75000000  0.50000000
   0.75000000  0.25000000  0.50000000

 position of ions in cartesian coordinates  (Angst):
   0.00000000  0.00000000  0.00000000
   1.63456871  2.32128888 -2.81572167
   0.79387909  1.17712559  1.43132416
   0.81728436  1.16064444 -1.40786084
   2.47525833  3.46545217 -1.38439751
   2.45185307  3.48193332 -4.22358251
  -0.00208390  3.49841447 -2.79539687
   3.27122132  1.14416329  2.84232353
  -0.01368934  3.48193332  0.02346333
   3.28282676  1.16064444  0.02346333

 k-point   1 :   0.0000 0.0000 0.0000  plane waves:    4315
 k-point   2 :   0.1250 0.0000 0.0000  plane waves:    4353
 k-point   3 :   0.2500 0.0000 0.0000  plane waves:    4339
 k-point   4 :   0.3750 0.0000 0.0000  plane waves:    4339
 k-point   5 :   0.5000 0.0000 0.0000  plane waves:    4358
 k-point   6 :   0.1250 0.1250 0.0000  plane waves:    4360
 k-point   7 :   0.2500 0.1250 0.0000  plane waves:    4337
 k-point   8 :   0.3750 0.1250 0.0000  plane waves:    4342
 k-point   9 :   0.5000 0.1250 0.0000  plane waves:    4349
 k-point  10 :  -0.3750 0.1250 0.0000  plane waves:    4337
 k-point  11 :  -0.2500 0.1250 0.0000  plane waves:    4352
 k-point  12 :  -0.1250 0.1250 0.0000  plane waves:    4360
 k-point  13 :   0.2500 0.2500 0.0000  plane waves:    4343
 k-point  14 :   0.3750 0.2500 0.0000  plane waves:    4343
 k-point  15 :   0.5000 0.2500 0.0000  plane waves:    4345
 k-point  16 :  -0.3750 0.2500 0.0000  plane waves:    4336
 k-point  17 :  -0.2500 0.2500 0.0000  plane waves:    4332
 k-point  18 :   0.3750 0.3750 0.0000  plane waves:    4338
 k-point  19 :   0.5000 0.3750 0.0000  plane waves:    4318
 k-point  20 :  -0.3750 0.3750 0.0000  plane waves:    4340
 k-point  21 :   0.5000 0.5000 0.0000  plane waves:    4324
 k-point  22 :   0.0000 0.0000 0.1111  plane waves:    4358
 k-point  23 :   0.1250 0.0000 0.1111  plane waves:    4352
 k-point  24 :   0.2500 0.0000 0.1111  plane waves:    4340
 k-point  25 :   0.3750 0.0000 0.1111  plane waves:    4349
 k-point  26 :   0.5000 0.0000 0.1111  plane waves:    4340
 k-point  27 :  -0.3750-0.0000 0.1111  plane waves:    4331
 k-point  28 :  -0.2500 0.0000 0.1111  plane waves:    4355
 k-point  29 :  -0.1250 0.0000 0.1111  plane waves:    4353
 k-point  30 :   0.1250 0.1250 0.1111  plane waves:    4347
 k-point  31 :   0.2500 0.1250 0.1111  plane waves:    4338
 k-point  32 :   0.3750 0.1250 0.1111  plane waves:    4343
 k-point  33 :   0.5000 0.1250 0.1111  plane waves:    4336
 k-point  34 :  -0.3750 0.1250 0.1111  plane waves:    4346
 k-point  35 :  -0.2500 0.1250 0.1111  plane waves:    4353
 k-point  36 :  -0.1250 0.1250 0.1111  plane waves:    4361
 k-point  37 :   0.2500 0.2500 0.1111  plane waves:    4338
 k-point  38 :   0.3750 0.2500 0.1111  plane waves:    4335
 k-point  39 :   0.5000 0.2500 0.1111  plane waves:    4329
 k-point  40 :  -0.3750 0.2500 0.1111  plane waves:    4337
 k-point  41 :  -0.2500 0.2500 0.1111  plane waves:    4335
 k-point  42 :  -0.1250 0.2500 0.1111  plane waves:    4332
 k-point  43 :   0.3750 0.3750 0.1111  plane waves:    4329
 k-point  44 :   0.5000 0.3750 0.1111  plane waves:    4317
 k-point  45 :  -0.3750 0.3750 0.1111  plane waves:    4327
 k-point  46 :  -0.2500 0.3750 0.1111  plane waves:    4340
 k-point  47 :  -0.1250 0.3750 0.1111  plane waves:    4344
 k-point  48 :   0.5000 0.5000 0.1111  plane waves:    4310
 k-point  49 :  -0.3750 0.5000 0.1111  plane waves:    4327
 k-point  50 :  -0.2500 0.5000 0.1111  plane waves:    4338
 k-point  51 :  -0.1250 0.5000 0.1111  plane waves:    4343
 k-point  52 :  -0.3750-0.3750 0.1111  plane waves:    4341
 k-point  53 :  -0.2500-0.3750 0.1111  plane waves:    4336
 k-point  54 :  -0.1250-0.3750 0.1111  plane waves:    4336
 k-point  55 :  -0.2500-0.2500 0.1111  plane waves:    4341
 k-point  56 :  -0.1250-0.2500 0.1111  plane waves:    4355
 k-point  57 :  -0.1250-0.1250 0.1111  plane waves:    4359
 k-point  58 :   0.0000 0.0000 0.2222  plane waves:    4340
 k-point  59 :   0.1250 0.0000 0.2222  plane waves:    4342
 k-point  60 :   0.2500 0.0000 0.2222  plane waves:    4341
[...]
 k-point 151 :   0.3750 0.3750 0.4444  plane waves:    4328
 k-point 152 :   0.5000 0.3750 0.4444  plane waves:    4331
 k-point 153 :  -0.3750 0.3750 0.4444  plane waves:    4326
 k-point 154 :  -0.2500 0.3750 0.4444  plane waves:    4327
 k-point 155 :  -0.1250 0.3750 0.4444  plane waves:    4337
 k-point 156 :   0.5000 0.5000 0.4444  plane waves:    4330
 k-point 157 :  -0.3750 0.5000 0.4444  plane waves:    4336
 k-point 158 :  -0.2500 0.5000 0.4444  plane waves:    4336
 k-point 159 :  -0.1250 0.5000 0.4444  plane waves:    4345
 k-point 160 :  -0.3750-0.3750 0.4444  plane waves:    4334
 k-point 161 :  -0.2500-0.3750 0.4444  plane waves:    4339
 k-point 162 :  -0.1250-0.3750 0.4444  plane waves:    4334
 k-point 163 :  -0.2500-0.2500 0.4444  plane waves:    4345
 k-point 164 :  -0.1250-0.2500 0.4444  plane waves:    4339
 k-point 165 :  -0.1250-0.1250 0.4444  plane waves:    4342

 maximum and minimum number of plane-waves per node :      2201     2141

 maximum number of plane-waves:      4361
 maximum index in each direction:
   IXMAX=   11   IYMAX=   11   IZMAX=   11
   IXMIN=  -11   IYMIN=  -11   IZMIN=  -11

 parallel 3D FFT for wavefunctions:
    minimum data exchange during FFTs selected (reduces bandwidth)
 parallel 3D FFT for charge:
    minimum data exchange during FFTs selected (reduces bandwidth)

 Broyden mixing: mesh for mixing (old mesh)
   NGX = 23   NGY = 23   NGZ = 23
  (NGX  = 96   NGY  = 96   NGZ  = 96)
  gives a total of  12167 points

 initial charge density was supplied:
 charge density of overlapping atoms calculated
 number of electron      98.0000000 magnetization
 keeping initial charge density in first step

 Maximum index for augmentation-charges        24141 (set IRDMAX)

 First call to EWALD:  gamma=   0.350
 Maximum number of real-space cells 3x 3x 3
 Maximum number of reciprocal cells 3x 3x 3

--------------------------------------- Iteration      1(   1)  ---------------------------------------

 eigenvalue-minimisations  : 19800
 total energy-change (2. order) : 0.1107091E+04  (-0.6826505E+04)
 number of electron      98.0000000 magnetization
 augmentation part       98.0000000 magnetization

 Free energy of the ion-electron system (eV)
  alpha Z        PSCENC =       642.67622853
  Ewald energy   TEWEN  =     -9539.36092438
  -Hartree energ DENC   =     -2348.93783735
  -exchange      EXHF   =         0.00000000
  -V(xc)+E(xc)   XCENC  =       471.25662073
  PAW double counting   =      9166.97638771    -9126.13493418
  entropy T*S    EENTRO =        -0.00031097
  eigenvalues    EBANDS =       318.44826527
  atomic energy  EATOM  =     11522.16744521
  free energy    TOTEN  =      1107.09094057 eV

  energy without entropy =     1107.09125154  energy(sigma->0) =     1107.09109605

[...]

 eigenvalue-minimisations  : 21768
 total energy-change (2. order) :-0.1287649E+04  (-0.1253372E+04)
 number of electron      98.0000000 magnetization
 augmentation part       98.0000000 magnetization

[...]

 eigenvalue-minimisations  :     0
 total energy-change (2. order) : 0.1737135E-08  ( 0.8454388E-11)
 number of electron      98.0000001 magnetization
 augmentation part       14.3529163 magnetization

[...]

 eigenvalue-minimisations  :     0
 total energy-change (2. order) :-0.1396984E-08  (-0.2491196E-11)
 number of electron      98.0000001 magnetization
 augmentation part       14.3529162 magnetization

[...]

--------------------------------------- Iteration      1(  39)  ---------------------------------------

 eigenvalue-minimisations  :     0
 total energy-change (2. order) : 0.2273737E-09  (-0.1164151E-11)
 number of electron      98.0000001 magnetization
 augmentation part       14.3529162 magnetization

 Free energy of the ion-electron system (eV)
  alpha Z        PSCENC =       642.67622853
  Ewald energy   TEWEN  =     -9539.36092438
  -Hartree energ DENC   =     -2223.35024510
  -exchange      EXHF   =         0.00000000
  -V(xc)+E(xc)   XCENC  =       480.37826316
  PAW double counting   =     12956.38291783   -12936.95249252
  entropy T*S    EENTRO =        -0.00173274
  eigenvalues    EBANDS =     -1087.04885852
  atomic energy  EATOM  =     11522.16744521
  free energy    TOTEN  =      -185.10939853 eV

  energy without entropy =     -185.10766579  energy(sigma->0) =     -185.10853216

  average scaling for gradient   0.8880

 average (electrostatic) potential at core
  the test charge radii are     0.7672  1.0818  0.9892
  (the norm of the test charge is              1.0000)
       1 -21.2052       2 -21.2052       3 -74.6024       4 -74.5918       5 -74.6024
       6 -74.5918       7 -74.6090       8 -74.6090       9 -80.7782      10 -80.7782

 E-fermi :  12.1059     XC(G=0): -14.0732     alpha+bet :-19.8188

 Fermi energy:        12.1058724926

 k-point     1 :       0.0000    0.0000    0.0000
  band No.  band energies     occupation
      1     -50.8845      2.00000
      2     -50.7193      2.00000
      3     -50.7128      2.00000
      4     -50.7105      2.00000
      5     -50.6346      2.00000
      6     -50.6245      2.00000
      7     -25.2938      2.00000
      8     -24.7821      2.00000
      9     -24.7747      2.00000
     10     -24.7698      2.00000
     11     -24.5627      2.00000
     12     -24.5505      2.00000
     13     -24.5377      2.00000
     14     -24.0500      2.00000
     15     -24.0424      2.00000
     16     -24.0381      2.00000
     17     -23.8661      2.00000
     18     -23.8489      2.00000
     19     -23.7913      2.00000
     20     -23.7877      2.00000
     21     -23.7822      2.00000
     22     -23.7441      2.00000
     23     -23.7389      2.00000
     24     -23.7264      2.00000
     25       0.3491      2.00000
     26       1.8670      2.00000
     27       2.7178      2.00000
     28       4.7684      2.00000
     29       4.7715      2.00000
     30       4.8067      2.00000
     31       7.2225      2.00000
     32       7.5815      2.00000
     33       7.5876      2.00000
     34       7.5958      2.00000
     35       7.8294      2.00000
     36       7.8629      2.00000
     37       9.1522      2.00000
     38       9.1682      2.00000
     39       9.1798      2.00000
     40      10.4260      2.00000
     41      10.4273      2.00000
     42      10.5265      2.00000
     43      10.5349      2.00000
     44      10.6084      2.00000
     45      10.6427      2.00000
     46      10.6431      2.00000
     47      10.6806      2.00000
     48      10.6910      2.00000
     49      12.3308      0.00000
     50      12.3371      0.00000
     51      12.3960      0.00000
     52      13.2203      0.00000
     53      13.3410      0.00000
     54      13.4369      0.00000
     55      13.5220      0.00000
     56      14.0057      0.00000
     57      14.0064      0.00000
     58      14.1527      0.00000
     59      14.7349      0.00000
     60      15.8367      0.00000

[...]

 k-point   165 :      -0.1250   -0.1250    0.4444
  band No.  band energies     occupation
      1     -50.8286      2.00000
      2     -50.7401      2.00000
      3     -50.7202      2.00000
      4     -50.6839      2.00000
      5     -50.6811      2.00000
      6     -50.6349      2.00000
      7     -25.0055      2.00000
      8     -24.7297      2.00000
      9     -24.6482      2.00000
     10     -24.5365      2.00000
     11     -24.4831      2.00000
     12     -24.3536      2.00000
     13     -24.3484      2.00000
     14     -24.1962      2.00000
     15     -24.1960      2.00000
     16     -24.0933      2.00000
     17     -24.0517      2.00000
     18     -23.9811      2.00000
     19     -23.9354      2.00000
     20     -23.9286      2.00000
     21     -23.8743      2.00000
     22     -23.8422      2.00000
     23     -23.8368      2.00000
     24     -23.7692      2.00000
     25       1.6175      2.00000
     26       2.7226      2.00000
     27       3.1904      2.00000
     28       3.8942      2.00000
     29       5.3633      2.00000
     30       5.9899      2.00000
     31       6.5496      2.00000
     32       7.1985      2.00000
     33       7.5097      2.00000
     34       7.6303      2.00000
     35       7.6694      2.00000
     36       7.8759      2.00000
     37       8.2094      2.00000
     38       8.2648      2.00000
     39       8.3840      2.00000
     40       8.6089      2.00000
     41       9.1204      2.00000
     42       9.5194      2.00000
     43      10.2606      2.00000
     44      10.3342      2.00000
     45      11.0281      2.00000
     46      11.0768      2.00000
     47      11.1017      2.00000
     48      11.4968      2.00000
     49      11.6824      2.00000
     50      12.0942      1.59064
     51      12.4725      0.00000
     52      12.7458      0.00000
     53      13.1971      0.00000
     54      13.2512      0.00000
     55      13.5530      0.00000
     56      14.0539      0.00000
     57      14.4381      0.00000
     58      15.1851      0.00000
     59      15.6102      0.00000
     60      15.9620      0.00000

 soft charge-density along one line, spin component           1
         0         1         2         3         4         5         6         7         8         9
 total charge-density along one line

------------------------ aborting loop because EDIFF is reached ----------------------------------------

  FREE ENERGIE OF THE ION-ELECTRON SYSTEM (eV)
  free  energy   TOTEN  =      -185.10939853 eV

  energy  without entropy=     -185.10766579  energy(sigma->0) =     -185.10853216

 writing wavefunctions