 vasp.6.2.0 18Jan21 (build Jan 05 2022 15:41:44) complex

 executed on             LinuxIFC date 2025.05.07  18:41:55

 INCAR:
   SYSTEM = routine with relax: pwdword
   ICHARG = 2
   NPAR = 6
   KPAR = 2
   NCORE = 2
   ADDGRID = T
   PREC = Acc
   ENCUT = 600
   METAGGA = R2SCAN
   LASPH = .TRUE.
   LMIXTAU = .FALSE.
   ALGO = A
   EDIFF = 1E-9
   NELM = 100
   NELMIN = 6
   IALGO = 38
   LREAL = F
   NSW = 0
   ISIF = -1
   ISMEAR = 0
   SIGMA = 0.02
   SYMPREC = 1E-4

 POTCAR:    PAW_PBE B 06Sep2000
 POTCAR:    PAW_PBE Mo_sv 02Feb2006
 POTCAR:    PAW_PBE Si 05Jan2001
|           W    W    AA    RRRRR   N    N  II  N    N   GGGG   !!!           |
|           W    W   A  A   R    R  NN   N  II  NN   N  G    G  !!!           |
|           W    W  A    A  R    R  N N  N  II  N N  N  G       !!!           |
|           W WW W  AAAAAA  RRRRR   N  N N  II  N  N N  G  GGG   !            |
|           WW  WW  A    A  R   R   N   NN  II  N   NN  G    G                |
|           W    W  A    A  R    R  N    N  II  N    N   GGGG   !!!           |
|     For optimal performance we recommend to set                             |
|       NCORE = 2 up to number-of-cores-per-socket                            |
|     This setting can greatly improve the performance of VASP for DFT.       |
|     The default, NCORE=1 might be grossly inefficient on modern             |
|     multi-core architectures or massively parallel machines. Do your        |
|     Unfortunately you need to use the default for GW and RPA                |
|     calculations (for HF NCORE is supported but not extensively tested      |
|     yet).                                                                   |

 POTCAR:    PAW_PBE B 06Sep2000
   VRHFIN =B: s2p1

   TITEL  = PAW_PBE B 06Sep2000
   POMASS =   10.811; ZVAL   =    3.000    mass and valenz
   ENMAX  =  318.614; ENMIN  =  238.960 eV

 POTCAR:    PAW_PBE Mo_sv 02Feb2006
   VRHFIN =Mo: 4p5s4d

   TITEL  = PAW_PBE Mo_sv 02Feb2006
   POMASS =   95.940; ZVAL   =   14.000    mass and valenz
   ENMAX  =  242.676; ENMIN  =  182.007 eV

 POTCAR:    PAW_PBE Si 05Jan2001
   VRHFIN =Si: s2p2

   TITEL  = PAW_PBE Si 05Jan2001
   POMASS =   28.085; ZVAL   =    4.000    mass and valenz
   ENMAX  =  245.345; ENMIN  =  184.009 eV

  PAW_PBE B 06Sep2000                   :
  PAW_PBE Mo_sv 02Feb2006               :
  PAW_PBE Si 05Jan2001                  :

 POSCAR: EA164
  positions in direct lattice

 METAGGA = R2SCA    LMAXTAU =  6    LMIXTAU =  F

 ion  position               nearest neighbor table
   1  0.250  0.750  0.500-   3 1.99   5 1.99   8 2.00  10 2.00   9 2.00   7 2.00
   2  0.750  0.250  0.500-   3 1.99   5 1.99   8 2.00  10 2.00   7 2.00   9 2.00
   3  0.500  0.000  0.500-   1 1.99   2 1.99   8 2.82   9 2.82  10 2.82   9 2.82   8 2.82  10 2.82
                             7 2.82   7 2.82   6 2.82   6 2.82   4 2.82   4 2.82
   4  0.000  0.000  0.000-   7 2.82   9 2.82  10 2.82  10 2.82   7 2.82   9 2.82   8 2.82   8 2.82
                             5 2.82   5 2.82   3 2.82   3 2.82
   5  0.000  0.500  0.500-   1 1.99   2 1.99   7 2.82   8 2.82  10 2.82   7 2.82  10 2.82   8 2.82
                             9 2.82   9 2.82   4 2.82   4 2.82   6 2.82   6 2.82
   6  0.500  0.500  0.000-   7 2.82   8 2.82   9 2.82   8 2.82   9 2.82   7 2.82  10 2.82  10 2.82
                             3 2.82   3 2.82   5 2.82   5 2.82
   7  0.000  0.500  0.000-   1 2.00   2 2.00   5 2.82   6 2.82   4 2.82   5 2.82   4 2.82   6 2.82
                             3 2.82   3 2.82  10 2.82  10 2.82   8 2.82   8 2.82
   8  0.500  0.500  0.500-   1 2.00   2 2.00   3 2.82   5 2.82   6 2.82   6 2.82   3 2.82   5 2.82
                             4 2.82   4 2.82   9 2.82   9 2.82   7 2.82   7 2.82
   9  0.500  0.000  0.000-   2 2.00   1 2.00   4 2.82   6 2.82   3 2.82   3 2.82   6 2.82   4 2.82
                             5 2.82   5 2.82   8 2.82   8 2.82  10 2.82  10 2.82
  10  0.000  0.000  0.500-   1 2.00   2 2.00   3 2.82   4 2.82   5 2.82   4 2.82   5 2.82   3 2.82
                             6 2.82   6 2.82   7 2.82   7 2.82   9 2.82   9 2.82

  LATTYP: Found a body centered tetragonal cell.
 ALAT       =     5.6488928346
 C/A-ratio  =     1.4073910961

  Lattice vectors:

 A1 = (   4.8881362595,   0.0000000000,  -2.8039956993)
 A2 = (  -1.6398495574,   4.6048636810,  -2.8039956993)
 A3 = (   0.0000000000,   0.0000000000,   5.6352700000)

Analysis of symmetry for initial positions (statically):
 Subroutine PRICEL returns following result:

  LATTYP: Found a simple tetragonal cell.
 ALAT       =     3.9943512723
 C/A-ratio  =     0.9951805608

[...]

   2 primitive cells build up your supercell.

 Routine SETGRP: Setting up the symmetry group for a
 body centered tetragonal supercell.

 Subroutine GETGRP returns: Found 16 space group operations
 (whereof 16 operations were pure point group operations)
 out of a pool of 16 trial point group operations.

The static configuration has the point symmetry D_4h.

Analysis of symmetry for dynamics (positions and initial velocities):
 Subroutine PRICEL returns following result:

  LATTYP: Found a simple tetragonal cell.
 ALAT       =     3.9943512723
 C/A-ratio  =     0.9951805608

  Lattice vectors:

 A1 = (  -3.2639929085,   2.3024318405,  -0.0000000000)
 A2 = (   1.6241433510,   2.3024318405,   2.8312743007)
 A3 = (   1.6241433510,   2.3024318405,  -2.8039956993)

   2 primitive cells build up your supercell.

 Routine SETGRP: Setting up the symmetry group for a
 body centered tetragonal supercell.

 Subroutine GETGRP returns: Found 16 space group operations
 (whereof 16 operations were pure point group operations)
 out of a pool of 16 trial point group operations.

The dynamic configuration has the point symmetry D_4h.

 Subroutine INISYM returns: Found 16 space group operations
 (whereof 16 operations are pure point group operations),
 and found     2 'primitive' translations

                                     Primitive cell

  volume of cell :      63.4227

  direct lattice vectors                    reciprocal lattice vectors
    -3.263992908  2.302431840 -0.000000000    -0.204576949  0.144309284  0.000000000
     1.624143351  2.302431840  2.831274301     0.101793327  0.144305118  0.177453787
     1.624143351  2.302431840 -2.803995699     0.102783621  0.145708987 -0.177453787

  length of vectors
     3.994351272  3.994389587  3.975100739     0.250353545  0.250351143  0.251565952

  position of ions in fractional coordinates (direct lattice)
     0.500000000  0.500000000  0.500000000
     0.500000000  0.500000000  0.000000000
     0.000000000  0.000000000  0.000000000
     0.500000000  0.000000000  0.500000000
     1.000000000  0.500000000  0.500000000

  ion indices of the primitive-cell ions
   primitive index   ion index
                 1           1
                 2           3
                 3           4
                 4           7
                 5           8

 KPOINTS: EA

Automatic generation of k-mesh.
 Grid dimensions read from file:
 generate k-points for:    8    8    9

 Generating k-lattice:

  Cartesian coordinates                     Fractional coordinates (reciprocal lattice)
     0.025572119  0.009106551  0.000000000     0.125000000  0.000000000  0.000000000
     0.000000000  0.027145212  0.000000000     0.000000000  0.125000000  0.000000000
     0.011310370  0.016033902  0.019717087     0.000000000  0.000000000  0.111111111

  Length of vectors
     0.027145212  0.027145212  0.027816794

  Shift w.r.t. Gamma in fractional coordinates (k-lattice)
     0.000000000  0.000000000  0.000000000

 WARNING: IBZKPT: internal override: KBLOWUP is changed to .FALSE.
      ... skipping the blow-up phase ...

 Subroutine IBZKPT returns following result:

 Found    165 irreducible k-points:

 Following reciprocal coordinates:
            Coordinates               Weight
  0.000000  0.000000  0.000000      1.000000
  0.125000  0.000000  0.000000      4.000000
  0.250000  0.000000  0.000000      4.000000
  0.375000 -0.000000  0.000000      4.000000
  0.500000  0.000000  0.000000      2.000000
  0.125000  0.125000  0.000000      2.000000
  0.250000  0.125000  0.000000      4.000000
  0.375000  0.125000  0.000000      4.000000
  0.500000  0.125000  0.000000      4.000000
 -0.375000  0.125000  0.000000      4.000000
 -0.250000  0.125000  0.000000      4.000000
 -0.125000  0.125000  0.000000      2.000000
  0.250000  0.250000  0.000000      2.000000
  0.375000  0.250000  0.000000      4.000000
  0.500000  0.250000  0.000000      4.000000
 -0.375000  0.250000  0.000000      4.000000
 -0.250000  0.250000  0.000000      2.000000
  0.375000  0.375000  0.000000      2.000000
  0.500000  0.375000  0.000000      4.000000
 -0.375000  0.375000  0.000000      2.000000
  0.500000  0.500000  0.000000      1.000000
 -0.000000 -0.000000  0.111111      2.000000
  0.125000 -0.000000  0.111111      4.000000
  0.250000 -0.000000  0.111111      4.000000
  0.375000 -0.000000  0.111111      4.000000
  0.500000 -0.000000  0.111111      4.000000
 -0.375000 -0.000000  0.111111      4.000000
 -0.250000  0.000000  0.111111      4.000000
 -0.125000  0.000000  0.111111      4.000000
  0.125000  0.125000  0.111111      2.000000
  0.250000  0.125000  0.111111      4.000000
  0.375000  0.125000  0.111111      4.000000
  0.500000  0.125000  0.111111      4.000000
 -0.375000  0.125000  0.111111      4.000000
 -0.250000  0.125000  0.111111      4.000000
 -0.125000  0.125000  0.111111      4.000000
  0.250000  0.250000  0.111111      2.000000
  0.375000  0.250000  0.111111      4.000000
  0.500000  0.250000  0.111111      4.000000
 -0.375000  0.250000  0.111111      4.000000
 -0.250000  0.250000  0.111111      4.000000
 -0.125000  0.250000  0.111111      4.000000
  0.375000  0.375000  0.111111      2.000000
  0.500000  0.375000  0.111111      4.000000
 -0.375000  0.375000  0.111111      4.000000
 -0.250000  0.375000  0.111111      4.000000
 -0.125000  0.375000  0.111111      4.000000
  0.500000  0.500000  0.111111      2.000000
 -0.375000  0.500000  0.111111      4.000000
 -0.250000  0.500000  0.111111      4.000000
 -0.125000  0.500000  0.111111      4.000000
 -0.375000 -0.375000  0.111111      2.000000
 -0.250000 -0.375000  0.111111      4.000000
 -0.125000 -0.375000  0.111111      4.000000
 -0.250000 -0.250000  0.111111      2.000000
 -0.125000 -0.250000  0.111111      4.000000
 -0.125000 -0.125000  0.111111      2.000000
  0.000000  0.000000  0.222222      2.000000
  0.125000  0.000000  0.222222      4.000000
  0.250000  0.000000  0.222222      4.000000
[...]
  0.375000  0.375000  0.444444      2.000000
  0.500000  0.375000  0.444444      4.000000
 -0.375000  0.375000  0.444444      4.000000
 -0.250000  0.375000  0.444444      4.000000
 -0.125000  0.375000  0.444444      4.000000
  0.500000  0.500000  0.444444      2.000000
 -0.375000  0.500000  0.444444      4.000000
 -0.250000  0.500000  0.444444      4.000000
 -0.125000  0.500000  0.444444      4.000000
 -0.375000 -0.375000  0.444444      2.000000
 -0.250000 -0.375000  0.444444      4.000000
 -0.125000 -0.375000  0.444444      4.000000
 -0.250000 -0.250000  0.444444      2.000000
[...]
   0.00000000  0.00000000  0.00000000       0.002
   0.12500000  0.00000000  0.00000000       0.007
   0.25000000  0.00000000  0.00000000       0.007
   0.37500000 -0.00000000  0.00000000       0.007
   0.50000000  0.00000000  0.00000000       0.003
   0.12500000  0.12500000  0.00000000       0.003
   0.25000000  0.12500000  0.00000000       0.007
   0.37500000  0.12500000  0.00000000       0.007
   0.50000000  0.12500000  0.00000000       0.007
  -0.37500000  0.12500000  0.00000000       0.007
  -0.25000000  0.12500000  0.00000000       0.007
  -0.12500000  0.12500000  0.00000000       0.003
   0.25000000  0.25000000  0.00000000       0.003
   0.37500000  0.25000000  0.00000000       0.007
   0.50000000  0.25000000  0.00000000       0.007
  -0.37500000  0.25000000  0.00000000       0.007
  -0.25000000  0.25000000  0.00000000       0.003
   0.37500000  0.37500000  0.00000000       0.003
   0.50000000  0.37500000  0.00000000       0.007
  -0.37500000  0.37500000  0.00000000       0.003
   0.50000000  0.50000000  0.00000000       0.002
  -0.00000000 -0.00000000  0.11111111       0.003
   0.12500000 -0.00000000  0.11111111       0.007
   0.25000000 -0.00000000  0.11111111       0.007
   0.37500000 -0.00000000  0.11111111       0.007
   0.50000000 -0.00000000  0.11111111       0.007
  -0.37500000 -0.00000000  0.11111111       0.007
  -0.25000000  0.00000000  0.11111111       0.007
  -0.12500000  0.00000000  0.11111111       0.007
   0.12500000  0.12500000  0.11111111       0.003
   0.25000000  0.12500000  0.11111111       0.007
   0.37500000  0.12500000  0.11111111       0.007
   0.50000000  0.12500000  0.11111111       0.007
  -0.37500000  0.12500000  0.11111111       0.007
  -0.25000000  0.12500000  0.11111111       0.007
  -0.12500000  0.12500000  0.11111111       0.007
   0.25000000  0.25000000  0.11111111       0.003
   0.37500000  0.25000000  0.11111111       0.007
   0.50000000  0.25000000  0.11111111       0.007
  -0.37500000  0.25000000  0.11111111       0.007
  -0.25000000  0.25000000  0.11111111       0.007
  -0.12500000  0.25000000  0.11111111       0.007
   0.37500000  0.37500000  0.11111111       0.003
   0.50000000  0.37500000  0.11111111       0.007
  -0.37500000  0.37500000  0.11111111       0.007
  -0.25000000  0.37500000  0.11111111       0.007
  -0.12500000  0.37500000  0.11111111       0.007
   0.50000000  0.50000000  0.11111111       0.003
  -0.37500000  0.50000000  0.11111111       0.007
  -0.25000000  0.50000000  0.11111111       0.007
  -0.12500000  0.50000000  0.11111111       0.007
  -0.37500000 -0.37500000  0.11111111       0.003
  -0.25000000 -0.37500000  0.11111111       0.007
  -0.12500000 -0.37500000  0.11111111       0.007
  -0.25000000 -0.25000000  0.11111111       0.003
  -0.12500000 -0.25000000  0.11111111       0.007
  -0.12500000 -0.12500000  0.11111111       0.003
   0.00000000  0.00000000  0.22222222       0.003
   0.12500000  0.00000000  0.22222222       0.007
   0.25000000  0.00000000  0.22222222       0.007
[...]
   0.37500000  0.37500000  0.44444444       0.003
   0.50000000  0.37500000  0.44444444       0.007
  -0.37500000  0.37500000  0.44444444       0.007
  -0.25000000  0.37500000  0.44444444       0.007
  -0.12500000  0.37500000  0.44444444       0.007
   0.50000000  0.50000000  0.44444444       0.003
  -0.37500000  0.50000000  0.44444444       0.007
  -0.25000000  0.50000000  0.44444444       0.007
  -0.12500000  0.50000000  0.44444444       0.007
  -0.37500000 -0.37500000  0.44444444       0.003
  -0.25000000 -0.37500000  0.44444444       0.007
  -0.12500000 -0.37500000  0.44444444       0.007
  -0.25000000 -0.25000000  0.44444444       0.003
  -0.12500000 -0.25000000  0.44444444       0.007
  -0.12500000 -0.12500000  0.44444444       0.003

 position of ions in fractional coordinates (direct lattice)
   0.25000000  0.75000000  0.50000000
   0.75000000  0.25000000  0.50000000
   0.50000000  0.00000000  0.50000000
   0.00000000  0.00000000  0.00000000
   0.00000000  0.50000000  0.50000000
   0.50000000  0.50000000  0.00000000
   0.00000000  0.50000000  0.00000000
   0.50000000  0.50000000  0.50000000
   0.50000000  0.00000000  0.00000000
   0.00000000  0.00000000  0.50000000

 position of ions in cartesian coordinates  (Angst):
  -0.00785310  3.45364776  0.01363930
   3.25613981  1.15121592  0.01363930
   2.44406813  0.00000000  1.41563715
   0.00000000  0.00000000  0.00000000
  -0.81992478  2.30243184  1.41563715
   1.62414335  2.30243184 -2.80399570
  -0.81992478  2.30243184 -1.40199785
   1.62414335  2.30243184  0.01363930
   2.44406813  0.00000000 -1.40199785
   0.00000000  0.00000000  2.81763500

 k-point   1 :   0.0000 0.0000 0.0000  plane waves:    4279
 k-point   2 :   0.1250 0.0000 0.0000  plane waves:    4248
 k-point   3 :   0.2500 0.0000 0.0000  plane waves:    4239
 k-point   4 :   0.3750-0.0000 0.0000  plane waves:    4223
 k-point   5 :   0.5000 0.0000 0.0000  plane waves:    4222
 k-point   6 :   0.1250 0.1250 0.0000  plane waves:    4238
 k-point   7 :   0.2500 0.1250 0.0000  plane waves:    4241
 k-point   8 :   0.3750 0.1250 0.0000  plane waves:    4241
 k-point   9 :   0.5000 0.1250 0.0000  plane waves:    4239
 k-point  10 :  -0.3750 0.1250 0.0000  plane waves:    4227
 k-point  11 :  -0.2500 0.1250 0.0000  plane waves:    4230
 k-point  12 :  -0.1250 0.1250 0.0000  plane waves:    4236
 k-point  13 :   0.2500 0.2500 0.0000  plane waves:    4234
 k-point  14 :   0.3750 0.2500 0.0000  plane waves:    4239
 k-point  15 :   0.5000 0.2500 0.0000  plane waves:    4231
 k-point  16 :  -0.3750 0.2500 0.0000  plane waves:    4217
 k-point  17 :  -0.2500 0.2500 0.0000  plane waves:    4222
 k-point  18 :   0.3750 0.3750 0.0000  plane waves:    4228
 k-point  19 :   0.5000 0.3750 0.0000  plane waves:    4229
 k-point  20 :  -0.3750 0.3750 0.0000  plane waves:    4224
 k-point  21 :   0.5000 0.5000 0.0000  plane waves:    4232
 k-point  22 :  -0.0000-0.0000 0.1111  plane waves:    4240
 k-point  23 :   0.1250-0.0000 0.1111  plane waves:    4236
 k-point  24 :   0.2500-0.0000 0.1111  plane waves:    4229
 k-point  25 :   0.3750-0.0000 0.1111  plane waves:    4238
 k-point  26 :   0.5000-0.0000 0.1111  plane waves:    4245
 k-point  27 :  -0.3750-0.0000 0.1111  plane waves:    4241
 k-point  28 :  -0.2500 0.0000 0.1111  plane waves:    4239
 k-point  29 :  -0.1250 0.0000 0.1111  plane waves:    4243
 k-point  30 :   0.1250 0.1250 0.1111  plane waves:    4221
 k-point  31 :   0.2500 0.1250 0.1111  plane waves:    4231
 k-point  32 :   0.3750 0.1250 0.1111  plane waves:    4247
 k-point  33 :   0.5000 0.1250 0.1111  plane waves:    4240
 k-point  34 :  -0.3750 0.1250 0.1111  plane waves:    4225
 k-point  35 :  -0.2500 0.1250 0.1111  plane waves:    4230
 k-point  36 :  -0.1250 0.1250 0.1111  plane waves:    4239
 k-point  37 :   0.2500 0.2500 0.1111  plane waves:    4235
 k-point  38 :   0.3750 0.2500 0.1111  plane waves:    4229
 k-point  39 :   0.5000 0.2500 0.1111  plane waves:    4229
 k-point  40 :  -0.3750 0.2500 0.1111  plane waves:    4213
 k-point  41 :  -0.2500 0.2500 0.1111  plane waves:    4224
 k-point  42 :  -0.1250 0.2500 0.1111  plane waves:    4231
 k-point  43 :   0.3750 0.3750 0.1111  plane waves:    4234
 k-point  44 :   0.5000 0.3750 0.1111  plane waves:    4226
 k-point  45 :  -0.3750 0.3750 0.1111  plane waves:    4227
 k-point  46 :  -0.2500 0.3750 0.1111  plane waves:    4228
 k-point  47 :  -0.1250 0.3750 0.1111  plane waves:    4245
 k-point  48 :   0.5000 0.5000 0.1111  plane waves:    4236
 k-point  49 :  -0.3750 0.5000 0.1111  plane waves:    4233
 k-point  50 :  -0.2500 0.5000 0.1111  plane waves:    4243
 k-point  51 :  -0.1250 0.5000 0.1111  plane waves:    4244
 k-point  52 :  -0.3750-0.3750 0.1111  plane waves:    4234
 k-point  53 :  -0.2500-0.3750 0.1111  plane waves:    4229
 k-point  54 :  -0.1250-0.3750 0.1111  plane waves:    4229
 k-point  55 :  -0.2500-0.2500 0.1111  plane waves:    4228
 k-point  56 :  -0.1250-0.2500 0.1111  plane waves:    4228
 k-point  57 :  -0.1250-0.1250 0.1111  plane waves:    4226
 k-point  58 :   0.0000 0.0000 0.2222  plane waves:    4222
 k-point  59 :   0.1250 0.0000 0.2222  plane waves:    4223
 k-point  60 :   0.2500 0.0000 0.2222  plane waves:    4230
[...]
 k-point 151 :   0.3750 0.3750 0.4444  plane waves:    4226
 k-point 152 :   0.5000 0.3750 0.4444  plane waves:    4232
 k-point 153 :  -0.3750 0.3750 0.4444  plane waves:    4235
 k-point 154 :  -0.2500 0.3750 0.4444  plane waves:    4240
 k-point 155 :  -0.1250 0.3750 0.4444  plane waves:    4239
 k-point 156 :   0.5000 0.5000 0.4444  plane waves:    4226
 k-point 157 :  -0.3750 0.5000 0.4444  plane waves:    4231
 k-point 158 :  -0.2500 0.5000 0.4444  plane waves:    4232
 k-point 159 :  -0.1250 0.5000 0.4444  plane waves:    4245
 k-point 160 :  -0.3750-0.3750 0.4444  plane waves:    4225
 k-point 161 :  -0.2500-0.3750 0.4444  plane waves:    4220
 k-point 162 :  -0.1250-0.3750 0.4444  plane waves:    4234
 k-point 163 :  -0.2500-0.2500 0.4444  plane waves:    4234
 k-point 164 :  -0.1250-0.2500 0.4444  plane waves:    4233
 k-point 165 :  -0.1250-0.1250 0.4444  plane waves:    4214

 maximum and minimum number of plane-waves per node :      2147     2093

 maximum number of plane-waves:      4279
 maximum index in each direction:
   IXMAX=   11   IYMAX=   11   IZMAX=   11
   IXMIN=  -11   IYMIN=  -11   IZMIN=  -11

 parallel 3D FFT for wavefunctions:
    minimum data exchange during FFTs selected (reduces bandwidth)
 parallel 3D FFT for charge:
    minimum data exchange during FFTs selected (reduces bandwidth)

 Broyden mixing: mesh for mixing (old mesh)
   NGX = 23   NGY = 23   NGZ = 23
  (NGX  = 96   NGY  = 96   NGZ  = 96)
  gives a total of  12167 points

 initial charge density was supplied:
 charge density of overlapping atoms calculated
 number of electron      78.0000000 magnetization
 keeping initial charge density in first step

 Maximum index for augmentation-charges        24679 (set IRDMAX)

 First call to EWALD:  gamma=   0.353
 Maximum number of real-space cells 3x 3x 3
 Maximum number of reciprocal cells 3x 3x 3

--------------------------------------- Iteration      1(   1)  ---------------------------------------

 eigenvalue-minimisations  : 15876
 total energy-change (2. order) : 0.6867400E+03  (-0.5085617E+04)
 number of electron      78.0000000 magnetization
 augmentation part       78.0000000 magnetization

 Free energy of the ion-electron system (eV)
  alpha Z        PSCENC =       372.67908315
  Ewald energy   TEWEN  =     -6560.31636180
  -Hartree energ DENC   =     -1730.49582353
  -exchange      EXHF   =         0.00000000
  -V(xc)+E(xc)   XCENC  =       308.25220638
  PAW double counting   =      6361.18088108    -6305.13563559
  entropy T*S    EENTRO =        -0.00055003
  eigenvalues    EBANDS =       236.84064238
  atomic energy  EATOM  =      8003.73552278
  free energy    TOTEN  =       686.73996482 eV

  energy without entropy =      686.74051485  energy(sigma->0) =      686.74023983

[...]

 eigenvalue-minimisations  : 17844
 total energy-change (2. order) :-0.8332983E+03  (-0.8178655E+03)
 number of electron      78.0000000 magnetization
 augmentation part       78.0000000 magnetization

[...]

 eigenvalue-minimisations  :     0
 total energy-change (2. order) :-0.6748451E-08  (-0.4508669E-09)
 number of electron      78.0000001 magnetization
 augmentation part        9.0068087 magnetization

[...]

--------------------------------------- Iteration      1(  36)  ---------------------------------------

 eigenvalue-minimisations  :     0
 total energy-change (2. order) : 0.1691660E-09  (-0.1735950E-09)
 number of electron      78.0000001 magnetization
 augmentation part        9.0068082 magnetization

 Free energy of the ion-electron system (eV)
  alpha Z        PSCENC =       372.67908315
  Ewald energy   TEWEN  =     -6560.31636180
  -Hartree energ DENC   =     -1640.55684043
  -exchange      EXHF   =         0.00000000
  -V(xc)+E(xc)   XCENC  =       316.41990833
  PAW double counting   =     10739.76491425   -10695.59199198
  entropy T*S    EENTRO =        -0.00170103
  eigenvalues    EBANDS =      -682.92659551
  atomic energy  EATOM  =      8003.73552278
  free energy    TOTEN  =      -146.79406224 eV

  energy without entropy =     -146.79236121  energy(sigma->0) =     -146.79321173

  average scaling for gradient   1.0113

 average (electrostatic) potential at core
  the test charge radii are     0.7672  1.0818  0.9892
  (the norm of the test charge is              1.0000)
       1 -22.1484       2 -22.1484       3 -75.0247       4 -74.9882       5 -75.0247
       6 -74.9882       7 -81.3166       8 -81.3167       9 -81.3166      10 -81.3167

 E-fermi :  11.8672     XC(G=0): -13.5387     alpha+bet :-19.1661

 Fermi energy:        11.8672253131

 k-point     1 :       0.0000    0.0000    0.0000
  band No.  band energies     occupation
      1     -51.1934      2.00000
      2     -51.1509      2.00000
      3     -51.0145      2.00000
      4     -50.9752      2.00000
      5     -24.9343      2.00000
      6     -24.9343      2.00000
      7     -24.9218      2.00000
      8     -24.9117      2.00000
      9     -24.8328      2.00000
     10     -24.8327      2.00000
     11     -24.4210      2.00000
     12     -24.3802      2.00000
     13     -24.1455      2.00000
     14     -24.1454      2.00000
     15     -24.0744      2.00000
     16     -24.0744      2.00000
     17      -2.8849      2.00000
     18       0.9369      2.00000
     19       0.9370      2.00000
     20       1.6448      2.00000
     21       4.5081      2.00000
     22       5.3006      2.00000
     23       5.3006      2.00000
     24       5.4721      2.00000
     25       6.0256      2.00000
     26       6.2382      2.00000
     27       7.9872      2.00000
     28       8.0439      2.00000
     29       8.2961      2.00000
     30       8.2995      2.00000
     31       8.4903      2.00000
     32       8.5611      2.00000
     33       8.5612      2.00000
     34       8.9344      2.00000
     35       8.9344      2.00000
     36      11.5787      2.00000
     37      11.5788      2.00000
     38      11.8183      1.99945
     39      11.9707      0.00000
     40      12.0366      0.00000
     41      12.4329      0.00000
     42      12.4331      0.00000
     43      12.6440      0.00000
     44      13.5668      0.00000
     45      13.5669      0.00000
     46      13.8588      0.00000
     47      14.3263      0.00000
     48      14.3263      0.00000

[...]

 k-point   165 :      -0.1250   -0.1250    0.4444
  band No.  band energies     occupation
      1     -51.1658      2.00000
      2     -51.1516      2.00000
      3     -51.0154      2.00000
      4     -51.0023      2.00000
      5     -24.9129      2.00000
      6     -24.9107      2.00000
      7     -24.7418      2.00000
      8     -24.7384      2.00000
      9     -24.6995      2.00000
     10     -24.6839      2.00000
     11     -24.4196      2.00000
     12     -24.3954      2.00000
     13     -24.3205      2.00000
     14     -24.3040      2.00000
     15     -24.2704      2.00000
     16     -24.2670      2.00000
     17      -1.9149      2.00000
     18      -0.2606      2.00000
     19       0.7461      2.00000
     20       1.5789      2.00000
     21       3.6907      2.00000
     22       5.3872      2.00000
     23       5.9366      2.00000
     24       5.9586      2.00000
     25       6.7225      2.00000
     26       7.0645      2.00000
     27       7.4943      2.00000
     28       7.5360      2.00000
     29       7.7135      2.00000
     30       8.5588      2.00000
     31       8.6560      2.00000
     32       9.8091      2.00000
     33       9.8404      2.00000
     34       9.9593      2.00000
     35      10.0357      2.00000
     36      10.1395      2.00000
     37      10.7764      2.00000
     38      10.7866      2.00000
     39      11.9341      0.00000
     40      12.0453      0.00000
     41      12.1210      0.00000
     42      12.6357      0.00000
     43      12.7681      0.00000
     44      12.7703      0.00000
     45      13.4290      0.00000
     46      13.5879      0.00000
     47      13.7283      0.00000
     48      13.9226      0.00000

 soft charge-density along one line, spin component           1
         0         1         2         3         4         5         6         7         8         9
 total charge-density along one line

------------------------ aborting loop because EDIFF is reached ----------------------------------------

  FREE ENERGIE OF THE ION-ELECTRON SYSTEM (eV)
  free  energy   TOTEN  =      -146.79406224 eV

  energy  without entropy=     -146.79236121  energy(sigma->0) =     -146.79321173

 writing wavefunctions