 vasp.6.2.0 18Jan21 (build Jan 05 2022 15:41:44) complex

 executed on             LinuxIFC date 2025.05.07  17:58:24

 INCAR:
   SYSTEM = routine with relax: pwdword
   ICHARG = 2
   NPAR = 6
   KPAR = 2
   NCORE = 2
   ADDGRID = T
   PREC = Acc
   ENCUT = 600
   METAGGA = R2SCAN
   LASPH = .TRUE.
   LMIXTAU = .FALSE.
   ALGO = A
   EDIFF = 1E-9
   NELM = 100
   NELMIN = 6
   IALGO = 38
   LREAL = F
   NSW = 0
   ISIF = -1
   ISMEAR = 0
   SIGMA = 0.02

 POTCAR:    PAW_PBE B 06Sep2000
 POTCAR:    PAW_PBE Mo_sv 02Feb2006
 POTCAR:    PAW_PBE Si 05Jan2001
|           W    W    AA    RRRRR   N    N  II  N    N   GGGG   !!!           |
|           W    W   A  A   R    R  NN   N  II  NN   N  G    G  !!!           |
|           W    W  A    A  R    R  N N  N  II  N N  N  G       !!!           |
|           W WW W  AAAAAA  RRRRR   N  N N  II  N  N N  G  GGG   !            |
|           WW  WW  A    A  R   R   N   NN  II  N   NN  G    G                |
|           W    W  A    A  R    R  N    N  II  N    N   GGGG   !!!           |
|     For optimal performance we recommend to set                             |
|       NCORE = 2 up to number-of-cores-per-socket                            |
|     This setting can greatly improve the performance of VASP for DFT.       |
|     The default, NCORE=1 might be grossly inefficient on modern             |
|     multi-core architectures or massively parallel machines. Do your        |
|     Unfortunately you need to use the default for GW and RPA                |
|     calculations (for HF NCORE is supported but not extensively tested      |
|     yet).                                                                   |

 POTCAR:    PAW_PBE B 06Sep2000
   VRHFIN =B: s2p1

   TITEL  = PAW_PBE B 06Sep2000
   POMASS =   10.811; ZVAL   =    3.000    mass and valenz
   ENMAX  =  318.614; ENMIN  =  238.960 eV

 POTCAR:    PAW_PBE Mo_sv 02Feb2006
   VRHFIN =Mo: 4p5s4d

   TITEL  = PAW_PBE Mo_sv 02Feb2006
   POMASS =   95.940; ZVAL   =   14.000    mass and valenz
   ENMAX  =  242.676; ENMIN  =  182.007 eV

 POTCAR:    PAW_PBE Si 05Jan2001
   VRHFIN =Si: s2p2

   TITEL  = PAW_PBE Si 05Jan2001
   POMASS =   28.085; ZVAL   =    4.000    mass and valenz
   ENMAX  =  245.345; ENMIN  =  184.009 eV

  PAW_PBE B 06Sep2000                   :
  PAW_PBE Mo_sv 02Feb2006               :
  PAW_PBE Si 05Jan2001                  :

 POSCAR: EA140
  positions in direct lattice

 METAGGA = R2SCA    LMAXTAU =  6    LMIXTAU =  F

 ion  position               nearest neighbor table
   1  0.500  0.000  0.000-   7 2.23   5 2.23  10 2.23   9 2.23
   2  0.000  0.000  0.500-   9 2.23  10 2.23   5 2.23   7 2.23
   3  0.000  0.500  0.000-   5 2.23   7 2.23  10 2.23   9 2.23
   4  0.500  0.500  0.500-  10 2.23   9 2.23   5 2.23   7 2.23
   5  0.250  0.750  0.500-   1 2.23   3 2.23   4 2.23   2 2.23  10 3.15  10 3.15   9 3.15   9 3.15

   6  0.000  0.000  0.000-   9 2.21  10 2.21
   7  0.750  0.250  0.500-   3 2.23   1 2.23   4 2.23   2 2.23   9 3.15   9 3.15  10 3.15  10 3.15

   8  0.500  0.500  0.000-   9 2.21  10 2.21
   9  0.250  0.250  0.000-   6 2.21   8 2.21   4 2.23   2 2.23   1 2.23   3 2.23   7 3.15   7 3.15
                             5 3.15   5 3.15
  10  0.750  0.750  0.000-   6 2.21   8 2.21   2 2.23   4 2.23   3 2.23   1 2.23   5 3.15   5 3.15
                             7 3.15   7 3.15

  LATTYP: Found a face centered orthorhombic cell.
 ALAT       =     8.8595433205
 B/A-ratio  =     1.0056744730
 C/A-ratio  =     1.0056832029

  Lattice vectors:

 A1 = (   5.4510018774,   0.0000000000,   3.1590091256)
 A2 = (   5.4510018774,   0.0000000000,  -3.1234608744)
 A3 = (   3.6202039001,   5.1343548994,   0.0355482512)

Analysis of symmetry for initial positions (statically):
 Subroutine PRICEL returns following result:

  LATTYP: Found a simple tetragonal cell.
 ALAT       =     4.4549469513
 C/A-ratio  =     0.9943489134

[...]

   2 primitive cells build up your supercell.

 Routine SETGRP: Setting up the symmetry group for a
 face centered orthorhombic supercell.

 Subroutine GETGRP returns: Found  8 space group operations
 (whereof  8 operations were pure point group operations)
 out of a pool of  8 trial point group operations.

The static configuration has the point symmetry D_2h.

Analysis of symmetry for dynamics (positions and initial velocities):
 Subroutine PRICEL returns following result:

  LATTYP: Found a simple tetragonal cell.
 ALAT       =     4.4549469513
 C/A-ratio  =     0.9943489134

  Lattice vectors:

 A1 = (  -3.6408999273,   2.5671774497,   0.0000000000)
 A2 = (   1.8101019500,   2.5671774497,   3.1590091256)
 A3 = (   1.8101019500,   2.5671774497,  -3.1234608744)

   2 primitive cells build up your supercell.

 Routine SETGRP: Setting up the symmetry group for a
 face centered orthorhombic supercell.

 Subroutine GETGRP returns: Found  8 space group operations
 (whereof  8 operations were pure point group operations)
 out of a pool of  8 trial point group operations.

The dynamic configuration has the point symmetry D_2h.

 Subroutine INISYM returns: Found  8 space group operations
 (whereof  8 operations are pure point group operations),
 and found     2 'primitive' translations

                                     Primitive cell

  volume of cell :      87.9149

  direct lattice vectors                    reciprocal lattice vectors
    -3.640899927  2.567177450  0.000000000    -0.183452514  0.129351305  0.000000000
     1.810101950  2.567177450  3.159009126     0.091207240  0.129354687  0.159173064
     1.810101950  2.567177450 -3.123460874     0.092245274  0.130826878 -0.159173064

  length of vectors
     4.454946951  4.454908280  4.429771660     0.224469564  0.224471513  0.225745270

  position of ions in fractional coordinates (direct lattice)
     0.500000000  1.000000000  0.500000000
     0.000000000  0.500000000  0.500000000
     0.500000000  0.500000000  0.500000000
     0.000000000  0.000000000  0.000000000
     1.000000000  1.000000000  0.500000000

  ion indices of the primitive-cell ions
   primitive index   ion index
                 1           1
                 2           2
                 3           5
                 4           6
                 5           9

 KPOINTS: EA

Automatic generation of k-mesh.
 Grid dimensions read from file:
 generate k-points for:    7    7    8

 Generating k-lattice:

  Cartesian coordinates                     Fractional coordinates (reciprocal lattice)
     0.026207502  0.009345019  0.000000000     0.142857143 -0.000000000  0.000000000
     0.000000000  0.027823776  0.000000000     0.000000000  0.142857143  0.000000000
     0.011400905  0.016169336  0.019896633    -0.000000000  0.000000000  0.125000000

  Length of vectors
     0.027823776  0.027823776  0.028058939

  Shift w.r.t. Gamma in fractional coordinates (k-lattice)
     0.000000000  0.000000000  0.000000000

 WARNING: IBZKPT: internal override: KBLOWUP is changed to .FALSE.
      ... skipping the blow-up phase ...

 Subroutine IBZKPT returns following result:

 Found    116 irreducible k-points:

 Following reciprocal coordinates:
            Coordinates               Weight
  0.000000  0.000000  0.000000      1.000000
  0.142857  0.000000  0.000000      4.000000
  0.285714  0.000000  0.000000      4.000000
  0.428571 -0.000000  0.000000      4.000000
  0.142857  0.142857  0.000000      2.000000
  0.285714  0.142857  0.000000      4.000000
  0.428571  0.142857  0.000000      4.000000
 -0.428571  0.142857  0.000000      4.000000
 -0.285714  0.142857  0.000000      4.000000
 -0.142857  0.142857  0.000000      2.000000
  0.285714  0.285714  0.000000      2.000000
  0.428571  0.285714  0.000000      4.000000
 -0.428571  0.285714  0.000000      4.000000
 -0.285714  0.285714  0.000000      2.000000
  0.428571  0.428571  0.000000      2.000000
 -0.428571  0.428571  0.000000      2.000000
 -0.000000  0.000000  0.125000      2.000000
  0.142857 -0.000000  0.125000      4.000000
  0.285714  0.000000  0.125000      4.000000
  0.428571  0.000000  0.125000      4.000000
 -0.428571  0.000000  0.125000      4.000000
 -0.285714  0.000000  0.125000      4.000000
 -0.142857 -0.000000  0.125000      4.000000
  0.142857  0.142857  0.125000      2.000000
  0.285714  0.142857  0.125000      4.000000
  0.428571  0.142857  0.125000      4.000000
 -0.428571  0.142857  0.125000      4.000000
 -0.285714  0.142857  0.125000      4.000000
 -0.142857  0.142857  0.125000      4.000000
  0.285714  0.285714  0.125000      2.000000
  0.428571  0.285714  0.125000      4.000000
 -0.428571  0.285714  0.125000      4.000000
 -0.285714  0.285714  0.125000      4.000000
 -0.142857  0.285714  0.125000      4.000000
  0.428571  0.428571  0.125000      2.000000
 -0.428571  0.428571  0.125000      4.000000
 -0.285714  0.428571  0.125000      4.000000
 -0.142857  0.428571  0.125000      4.000000
 -0.428571 -0.428571  0.125000      2.000000
 -0.285714 -0.428571  0.125000      4.000000
 -0.142857 -0.428571  0.125000      4.000000
 -0.285714 -0.285714  0.125000      2.000000
 -0.142857 -0.285714  0.125000      4.000000
 -0.142857 -0.142857  0.125000      2.000000
 -0.000000  0.000000  0.250000      2.000000
  0.142857 -0.000000  0.250000      4.000000
  0.285714 -0.000000  0.250000      4.000000
  0.428571 -0.000000  0.250000      4.000000
 -0.428571  0.000000  0.250000      4.000000
 -0.285714 -0.000000  0.250000      4.000000
 -0.142857  0.000000  0.250000      4.000000
  0.142857  0.142857  0.250000      2.000000
  0.285714  0.142857  0.250000      4.000000
  0.428571  0.142857  0.250000      4.000000
 -0.428571  0.142857  0.250000      4.000000
 -0.285714  0.142857  0.250000      4.000000
 -0.142857  0.142857  0.250000      4.000000
  0.285714  0.285714  0.250000      2.000000
  0.428571  0.285714  0.250000      4.000000
 -0.428571  0.285714  0.250000      4.000000
[...]
  0.142857  0.000000  0.500000      4.000000
  0.285714  0.000000  0.500000      4.000000
  0.428571 -0.000000  0.500000      4.000000
  0.142857  0.142857  0.500000      2.000000
  0.285714  0.142857  0.500000      4.000000
  0.428571  0.142857  0.500000      4.000000
 -0.428571  0.142857  0.500000      4.000000
 -0.285714  0.142857  0.500000      4.000000
 -0.142857  0.142857  0.500000      2.000000
  0.285714  0.285714  0.500000      2.000000
  0.428571  0.285714  0.500000      4.000000
 -0.428571  0.285714  0.500000      4.000000
 -0.285714  0.285714  0.500000      2.000000
  0.428571  0.428571  0.500000      2.000000
 -0.428571  0.428571  0.500000      2.000000

 Following cartesian coordinates:
            Coordinates               Weight
  0.000000  0.000000  0.000000      1.000000
  0.026208  0.009345  0.000000      4.000000
  0.052415  0.018690  0.000000      4.000000
  0.078623  0.028035  0.000000      4.000000
  0.026208  0.037169  0.000000      2.000000
  0.052415  0.046514  0.000000      4.000000
  0.078623  0.055859  0.000000      4.000000
 -0.078623 -0.000211  0.000000      4.000000
 -0.052415  0.009134  0.000000      4.000000
 -0.026208  0.018479  0.000000      2.000000
  0.052415  0.074338  0.000000      2.000000
  0.078623  0.083683  0.000000      4.000000
[...]
   0.00000000  0.00000000  0.00000000       0.003
   0.14285714  0.00000000  0.00000000       0.010
   0.28571429  0.00000000  0.00000000       0.010
   0.42857143 -0.00000000  0.00000000       0.010
   0.14285714  0.14285714  0.00000000       0.005
   0.28571429  0.14285714  0.00000000       0.010
   0.42857143  0.14285714  0.00000000       0.010
  -0.42857143  0.14285714  0.00000000       0.010
  -0.28571429  0.14285714  0.00000000       0.010
  -0.14285714  0.14285714  0.00000000       0.005
   0.28571429  0.28571429  0.00000000       0.005
   0.42857143  0.28571429  0.00000000       0.010
  -0.42857143  0.28571429  0.00000000       0.010
  -0.28571429  0.28571429  0.00000000       0.005
   0.42857143  0.42857143  0.00000000       0.005
  -0.42857143  0.42857143  0.00000000       0.005
  -0.00000000  0.00000000  0.12500000       0.005
   0.14285714 -0.00000000  0.12500000       0.010
   0.28571429  0.00000000  0.12500000       0.010
   0.42857143  0.00000000  0.12500000       0.010
  -0.42857143  0.00000000  0.12500000       0.010
  -0.28571429  0.00000000  0.12500000       0.010
  -0.14285714 -0.00000000  0.12500000       0.010
   0.14285714  0.14285714  0.12500000       0.005
   0.28571429  0.14285714  0.12500000       0.010
   0.42857143  0.14285714  0.12500000       0.010
  -0.42857143  0.14285714  0.12500000       0.010
  -0.28571429  0.14285714  0.12500000       0.010
  -0.14285714  0.14285714  0.12500000       0.010
   0.28571429  0.28571429  0.12500000       0.005
   0.42857143  0.28571429  0.12500000       0.010
  -0.42857143  0.28571429  0.12500000       0.010
  -0.28571429  0.28571429  0.12500000       0.010
  -0.14285714  0.28571429  0.12500000       0.010
   0.42857143  0.42857143  0.12500000       0.005
  -0.42857143  0.42857143  0.12500000       0.010
  -0.28571429  0.42857143  0.12500000       0.010
  -0.14285714  0.42857143  0.12500000       0.010
  -0.42857143 -0.42857143  0.12500000       0.005
  -0.28571429 -0.42857143  0.12500000       0.010
  -0.14285714 -0.42857143  0.12500000       0.010
  -0.28571429 -0.28571429  0.12500000       0.005
  -0.14285714 -0.28571429  0.12500000       0.010
  -0.14285714 -0.14285714  0.12500000       0.005
  -0.00000000  0.00000000  0.25000000       0.005
   0.14285714 -0.00000000  0.25000000       0.010
   0.28571429 -0.00000000  0.25000000       0.010
   0.42857143 -0.00000000  0.25000000       0.010
  -0.42857143  0.00000000  0.25000000       0.010
  -0.28571429 -0.00000000  0.25000000       0.010
  -0.14285714  0.00000000  0.25000000       0.010
   0.14285714  0.14285714  0.25000000       0.005
   0.28571429  0.14285714  0.25000000       0.010
   0.42857143  0.14285714  0.25000000       0.010
  -0.42857143  0.14285714  0.25000000       0.010
  -0.28571429  0.14285714  0.25000000       0.010
  -0.14285714  0.14285714  0.25000000       0.010
   0.28571429  0.28571429  0.25000000       0.005
   0.42857143  0.28571429  0.25000000       0.010
  -0.42857143  0.28571429  0.25000000       0.010
[...]
   0.14285714  0.00000000  0.50000000       0.010
   0.28571429  0.00000000  0.50000000       0.010
   0.42857143 -0.00000000  0.50000000       0.010
   0.14285714  0.14285714  0.50000000       0.005
   0.28571429  0.14285714  0.50000000       0.010
   0.42857143  0.14285714  0.50000000       0.010
  -0.42857143  0.14285714  0.50000000       0.010
  -0.28571429  0.14285714  0.50000000       0.010
  -0.14285714  0.14285714  0.50000000       0.005
   0.28571429  0.28571429  0.50000000       0.005
   0.42857143  0.28571429  0.50000000       0.010
  -0.42857143  0.28571429  0.50000000       0.010
  -0.28571429  0.28571429  0.50000000       0.005
   0.42857143  0.42857143  0.50000000       0.005
  -0.42857143  0.42857143  0.50000000       0.005

 position of ions in fractional coordinates (direct lattice)
   0.50000000  0.00000000  0.00000000
   0.00000000  0.00000000  0.50000000
   0.00000000  0.50000000  0.00000000
   0.50000000  0.50000000  0.50000000
   0.25000000  0.75000000  0.50000000
   0.00000000  0.00000000  0.00000000
   0.75000000  0.25000000  0.50000000
   0.50000000  0.50000000  0.00000000
   0.25000000  0.25000000  0.00000000
   0.75000000  0.75000000  0.00000000

 position of ions in cartesian coordinates  (Angst):
   2.72550094  0.00000000 -1.56173044
   0.00000000  0.00000000  3.14123500
  -0.91539899  2.56717745 -1.56173044
   1.81010195  2.56717745  0.01777413
  -0.01034801  3.85076617  0.01777413
   0.00000000  0.00000000  0.00000000
   3.63055191  1.28358872  0.01777413
   1.81010195  2.56717745 -3.12346087
   0.90505098  1.28358872 -1.56173044
   2.71515293  3.85076617 -4.68519131

 k-point   1 :   0.0000 0.0000 0.0000  plane waves:    5913
 k-point   2 :   0.1429 0.0000 0.0000  plane waves:    5886
 k-point   3 :   0.2857 0.0000 0.0000  plane waves:    5880
 k-point   4 :   0.4286-0.0000 0.0000  plane waves:    5867
 k-point   5 :   0.1429 0.1429 0.0000  plane waves:    5887
 k-point   6 :   0.2857 0.1429 0.0000  plane waves:    5876
 k-point   7 :   0.4286 0.1429 0.0000  plane waves:    5863
 k-point   8 :  -0.4286 0.1429 0.0000  plane waves:    5869
 k-point   9 :  -0.2857 0.1429 0.0000  plane waves:    5884
 k-point  10 :  -0.1429 0.1429 0.0000  plane waves:    5888
 k-point  11 :   0.2857 0.2857 0.0000  plane waves:    5865
 k-point  12 :   0.4286 0.2857 0.0000  plane waves:    5865
 k-point  13 :  -0.4286 0.2857 0.0000  plane waves:    5860
 k-point  14 :  -0.2857 0.2857 0.0000  plane waves:    5862
 k-point  15 :   0.4286 0.4286 0.0000  plane waves:    5860
 k-point  16 :  -0.4286 0.4286 0.0000  plane waves:    5854
 k-point  17 :  -0.0000 0.0000 0.1250  plane waves:    5896
 k-point  18 :   0.1429-0.0000 0.1250  plane waves:    5884
 k-point  19 :   0.2857 0.0000 0.1250  plane waves:    5868
 k-point  20 :   0.4286 0.0000 0.1250  plane waves:    5860
 k-point  21 :  -0.4286 0.0000 0.1250  plane waves:    5876
 k-point  22 :  -0.2857 0.0000 0.1250  plane waves:    5885
 k-point  23 :  -0.1429-0.0000 0.1250  plane waves:    5886
 k-point  24 :   0.1429 0.1429 0.1250  plane waves:    5875
 k-point  25 :   0.2857 0.1429 0.1250  plane waves:    5858
 k-point  26 :   0.4286 0.1429 0.1250  plane waves:    5859
 k-point  27 :  -0.4286 0.1429 0.1250  plane waves:    5871
 k-point  28 :  -0.2857 0.1429 0.1250  plane waves:    5883
 k-point  29 :  -0.1429 0.1429 0.1250  plane waves:    5892
 k-point  30 :   0.2857 0.2857 0.1250  plane waves:    5859
 k-point  31 :   0.4286 0.2857 0.1250  plane waves:    5863
 k-point  32 :  -0.4286 0.2857 0.1250  plane waves:    5859
 k-point  33 :  -0.2857 0.2857 0.1250  plane waves:    5863
 k-point  34 :  -0.1429 0.2857 0.1250  plane waves:    5883
 k-point  35 :   0.4286 0.4286 0.1250  plane waves:    5861
 k-point  36 :  -0.4286 0.4286 0.1250  plane waves:    5862
 k-point  37 :  -0.2857 0.4286 0.1250  plane waves:    5860
 k-point  38 :  -0.1429 0.4286 0.1250  plane waves:    5855
 k-point  39 :  -0.4286-0.4286 0.1250  plane waves:    5860
 k-point  40 :  -0.2857-0.4286 0.1250  plane waves:    5861
 k-point  41 :  -0.1429-0.4286 0.1250  plane waves:    5864
 k-point  42 :  -0.2857-0.2857 0.1250  plane waves:    5870
 k-point  43 :  -0.1429-0.2857 0.1250  plane waves:    5881
 k-point  44 :  -0.1429-0.1429 0.1250  plane waves:    5872
 k-point  45 :  -0.0000 0.0000 0.2500  plane waves:    5882
 k-point  46 :   0.1429-0.0000 0.2500  plane waves:    5869
 k-point  47 :   0.2857-0.0000 0.2500  plane waves:    5852
 k-point  48 :   0.4286-0.0000 0.2500  plane waves:    5863
 k-point  49 :  -0.4286 0.0000 0.2500  plane waves:    5873
 k-point  50 :  -0.2857-0.0000 0.2500  plane waves:    5890
 k-point  51 :  -0.1429 0.0000 0.2500  plane waves:    5885
 k-point  52 :   0.1429 0.1429 0.2500  plane waves:    5854
 k-point  53 :   0.2857 0.1429 0.2500  plane waves:    5866
 k-point  54 :   0.4286 0.1429 0.2500  plane waves:    5858
 k-point  55 :  -0.4286 0.1429 0.2500  plane waves:    5867
 k-point  56 :  -0.2857 0.1429 0.2500  plane waves:    5884
 k-point  57 :  -0.1429 0.1429 0.2500  plane waves:    5885
 k-point  58 :   0.2857 0.2857 0.2500  plane waves:    5856
 k-point  59 :   0.4286 0.2857 0.2500  plane waves:    5851
 k-point  60 :  -0.4286 0.2857 0.2500  plane waves:    5854
[...]
 k-point 102 :   0.1429 0.0000 0.5000  plane waves:    5859
 k-point 103 :   0.2857 0.0000 0.5000  plane waves:    5861
 k-point 104 :   0.4286-0.0000 0.5000  plane waves:    5869
 k-point 105 :   0.1429 0.1429 0.5000  plane waves:    5864
 k-point 106 :   0.2857 0.1429 0.5000  plane waves:    5859
 k-point 107 :   0.4286 0.1429 0.5000  plane waves:    5866
 k-point 108 :  -0.4286 0.1429 0.5000  plane waves:    5864
 k-point 109 :  -0.2857 0.1429 0.5000  plane waves:    5861
 k-point 110 :  -0.1429 0.1429 0.5000  plane waves:    5860
 k-point 111 :   0.2857 0.2857 0.5000  plane waves:    5863
 k-point 112 :   0.4286 0.2857 0.5000  plane waves:    5854
 k-point 113 :  -0.4286 0.2857 0.5000  plane waves:    5852
 k-point 114 :  -0.2857 0.2857 0.5000  plane waves:    5872
 k-point 115 :   0.4286 0.4286 0.5000  plane waves:    5866
 k-point 116 :  -0.4286 0.4286 0.5000  plane waves:    5856

 maximum and minimum number of plane-waves per node :      2984     2890

 maximum number of plane-waves:      5913
 maximum index in each direction:
   IXMAX=   12   IYMAX=   12   IZMAX=   12
   IXMIN=  -12   IYMIN=  -12   IZMIN=  -13

 parallel 3D FFT for wavefunctions:
    minimum data exchange during FFTs selected (reduces bandwidth)
 parallel 3D FFT for charge:
    minimum data exchange during FFTs selected (reduces bandwidth)

 Broyden mixing: mesh for mixing (old mesh)
   NGX = 25   NGY = 25   NGZ = 25
  (NGX  =100   NGY  =100   NGZ  =100)
  gives a total of  15625 points

 initial charge density was supplied:
 charge density of overlapping atoms calculated
 number of electron      76.0000000 magnetization
 keeping initial charge density in first step

 Maximum index for augmentation-charges        21600 (set IRDMAX)

 First call to EWALD:  gamma=   0.316
 Maximum number of real-space cells 3x 3x 3
 Maximum number of reciprocal cells 3x 3x 3

--------------------------------------- Iteration      1(   1)  ---------------------------------------

 eigenvalue-minimisations  : 12312
 total energy-change (2. order) : 0.6078525E+03  (-0.4826595E+04)
 number of electron      76.0000000 magnetization
 augmentation part       76.0000000 magnetization

 Free energy of the ion-electron system (eV)
  alpha Z        PSCENC =       274.50932576
  Ewald energy   TEWEN  =     -5596.96602601
  -Hartree energ DENC   =     -2085.92926335
  -exchange      EXHF   =         0.00000000
  -V(xc)+E(xc)   XCENC  =       323.79802445
  PAW double counting   =      6278.15209018    -6244.81064237
  entropy T*S    EENTRO =        -0.00117941
  eigenvalues    EBANDS =      -280.84145915
  atomic energy  EATOM  =      7939.94160518
  free energy    TOTEN  =       607.85247528 eV

  energy without entropy =      607.85365469  energy(sigma->0) =      607.85306498

[...]

 eigenvalue-minimisations  : 12648
 total energy-change (2. order) :-0.7418678E+03  (-0.7214816E+03)
 number of electron      76.0000000 magnetization
 augmentation part       76.0000000 magnetization

[...]

 eigenvalue-minimisations  :     0
 total energy-change (2. order) : 0.7245881E-06  (-0.6603805E-06)
 number of electron      76.0000001 magnetization
 augmentation part        9.3203889 magnetization

[...]

--------------------------------------- Iteration      1(  49)  ---------------------------------------

 eigenvalue-minimisations  :     0
 total energy-change (2. order) :-0.3119567E-09  (-0.8804778E-10)
 number of electron      76.0000001 magnetization
 augmentation part        9.3203540 magnetization

 Free energy of the ion-electron system (eV)
  alpha Z        PSCENC =       274.50932576
  Ewald energy   TEWEN  =     -5596.96602601
  -Hartree energ DENC   =     -2004.73842872
  -exchange      EXHF   =         0.00000000
  -V(xc)+E(xc)   XCENC  =       330.58864024
  PAW double counting   =      8530.41050861    -8504.84473698
  entropy T*S    EENTRO =        -0.00215738
  eigenvalues    EBANDS =     -1102.14877878
  atomic energy  EATOM  =      7939.94160518
  free energy    TOTEN  =      -133.25004809 eV

  energy without entropy =     -133.24789071  energy(sigma->0) =     -133.24896940

  average scaling for gradient   0.7775

 average (electrostatic) potential at core
  the test charge radii are     0.7672  1.0818  0.9892
  (the norm of the test charge is              1.0000)
       1 -28.3372       2 -28.3269       3 -28.3372       4 -28.3269       5 -81.1835
       6 -81.1213       7 -81.1835       8 -81.1213       9 -86.7403      10 -86.7403

 E-fermi :   5.9394     XC(G=0): -11.0951     alpha+bet :-12.3609

 Fermi energy:         5.9393776300

 k-point     1 :       0.0000    0.0000    0.0000
  band No.  band energies     occupation
      1     -57.1719      2.00000
      2     -57.1697      2.00000
      3     -57.1648      2.00000
      4     -57.1638      2.00000
      5     -30.7200      2.00000
      6     -30.6990      2.00000
      7     -30.5876      2.00000
      8     -30.5861      2.00000
      9     -30.5757      2.00000
     10     -30.5737      2.00000
     11     -30.5665      2.00000
     12     -30.5658      2.00000
     13     -30.5509      2.00000
     14     -30.5498      2.00000
     15     -30.4648      2.00000
     16     -30.4610      2.00000
     17      -6.0642      2.00000
     18      -3.3695      2.00000
     19      -1.9214      2.00000
     20      -1.9176      2.00000
     21      -1.1455      2.00000
     22       1.2647      2.00000
     23       1.4039      2.00000
     24       1.4055      2.00000
     25       1.5417      2.00000
     26       1.6406      2.00000
     27       2.3689      2.00000
     28       2.9672      2.00000
     29       2.9697      2.00000
     30       3.5740      2.00000
     31       4.2126      2.00000
     32       4.2873      2.00000
     33       4.2876      2.00000
     34       4.4676      2.00000
     35       4.8542      2.00000
     36       5.6147      2.00000
     37       6.1413      0.00000
     38       6.1430      0.00000
     39       6.1702      0.00000
     40       6.2771      0.00000
     41       6.2777      0.00000
     42       6.4512      0.00000
     43       6.4614      0.00000
     44       7.1113      0.00000
     45       7.4088      0.00000
     46       7.6550      0.00000
     47       7.6615      0.00000
     48       7.8133      0.00000

[...]

 k-point   116 :      -0.4286    0.4286    0.5000
  band No.  band energies     occupation
      1     -57.1708      2.00000
      2     -57.1698      2.00000
      3     -57.1649      2.00000
      4     -57.1647      2.00000
      5     -30.7211      2.00000
      6     -30.6969      2.00000
      7     -30.5947      2.00000
      8     -30.5938      2.00000
      9     -30.5746      2.00000
     10     -30.5725      2.00000
     11     -30.5631      2.00000
     12     -30.5629      2.00000
     13     -30.5473      2.00000
     14     -30.5469      2.00000
     15     -30.4660      2.00000
     16     -30.4610      2.00000
     17      -5.2248      2.00000
     18      -4.6046      2.00000
     19      -1.8261      2.00000
     20      -1.6479      2.00000
     21      -1.0092      2.00000
     22       0.3323      2.00000
     23       0.5998      2.00000
     24       0.6347      2.00000
     25       1.4523      2.00000
     26       2.3918      2.00000
     27       2.7153      2.00000
     28       2.7231      2.00000
     29       3.2631      2.00000
     30       4.0395      2.00000
     31       4.2504      2.00000
     32       4.4422      2.00000
     33       4.6909      2.00000
     34       4.9264      2.00000
     35       5.2309      2.00000
     36       5.3790      2.00000
     37       5.5313      2.00000
     38       5.9876      0.00065
     39       6.0490      0.00000
     40       6.3000      0.00000
     41       6.6526      0.00000
     42       6.6624      0.00000
     43       6.9929      0.00000
     44       7.0126      0.00000
     45       7.6846      0.00000
     46       7.9231      0.00000
     47       8.0027      0.00000
     48       8.1963      0.00000

 soft charge-density along one line, spin component           1
         0         1         2         3         4         5         6         7         8         9
 total charge-density along one line

------------------------ aborting loop because EDIFF is reached ----------------------------------------

  FREE ENERGIE OF THE ION-ELECTRON SYSTEM (eV)
  free  energy   TOTEN  =      -133.25004809 eV

  energy  without entropy=     -133.24789071  energy(sigma->0) =     -133.24896940

 writing wavefunctions