 vasp.6.2.0 18Jan21 (build Jan 05 2022 15:41:44) complex

 executed on             LinuxIFC date 2025.05.07  20:38:42

 INCAR:
   SYSTEM = routine with relax: pwdword
   ICHARG = 2
   NPAR = 6
   KPAR = 2
   NCORE = 2
   ADDGRID = T
   PREC = Acc
   ENCUT = 600
   METAGGA = R2SCAN
   LASPH = .TRUE.
   LMIXTAU = .FALSE.
   ALGO = A
   EDIFF = 1E-9
   NELM = 100
   NELMIN = 6
   IALGO = 38
   LREAL = F
   NSW = 0
   ISIF = -1
   ISMEAR = 0
   SIGMA = 0.02

 POTCAR:    PAW_PBE B 06Sep2000
 POTCAR:    PAW_PBE Mo_sv 02Feb2006
 POTCAR:    PAW_PBE Si 05Jan2001
|           W    W    AA    RRRRR   N    N  II  N    N   GGGG   !!!           |
|           W    W   A  A   R    R  NN   N  II  NN   N  G    G  !!!           |
|           W    W  A    A  R    R  N N  N  II  N N  N  G       !!!           |
|           W WW W  AAAAAA  RRRRR   N  N N  II  N  N N  G  GGG   !            |
|           WW  WW  A    A  R   R   N   NN  II  N   NN  G    G                |
|           W    W  A    A  R    R  N    N  II  N    N   GGGG   !!!           |
|     For optimal performance we recommend to set                             |
|       NCORE = 2 up to number-of-cores-per-socket                            |
|     This setting can greatly improve the performance of VASP for DFT.       |
|     The default, NCORE=1 might be grossly inefficient on modern             |
|     multi-core architectures or massively parallel machines. Do your        |
|     Unfortunately you need to use the default for GW and RPA                |
|     calculations (for HF NCORE is supported but not extensively tested      |
|     yet).                                                                   |

 POTCAR:    PAW_PBE B 06Sep2000
   VRHFIN =B: s2p1

   TITEL  = PAW_PBE B 06Sep2000
   POMASS =   10.811; ZVAL   =    3.000    mass and valenz
   ENMAX  =  318.614; ENMIN  =  238.960 eV

 POTCAR:    PAW_PBE Mo_sv 02Feb2006
   VRHFIN =Mo: 4p5s4d

   TITEL  = PAW_PBE Mo_sv 02Feb2006
   POMASS =   95.940; ZVAL   =   14.000    mass and valenz
   ENMAX  =  242.676; ENMIN  =  182.007 eV

 POTCAR:    PAW_PBE Si 05Jan2001
   VRHFIN =Si: s2p2

   TITEL  = PAW_PBE Si 05Jan2001
   POMASS =   28.085; ZVAL   =    4.000    mass and valenz
   ENMAX  =  245.345; ENMIN  =  184.009 eV

  PAW_PBE B 06Sep2000                   :
  PAW_PBE Mo_sv 02Feb2006               :
  PAW_PBE Si 05Jan2001                  :

 POSCAR: EA226
  positions in direct lattice

 METAGGA = R2SCA    LMAXTAU =  6    LMIXTAU =  F

 ion  position               nearest neighbor table
   1  0.500  0.000  0.500-   9 2.21  10 2.21   6 2.40   7 2.40   5 2.42   3 2.42
   2  0.000  0.500  0.500-   9 2.21  10 2.21   3 2.40   5 2.40   6 2.42   7 2.42
   3  0.249  0.749  0.998-   2 2.40   4 2.41   8 2.41   1 2.42   9 3.26  10 3.26   9 3.27  10 3.27
                             7 3.40   6 3.40   7 3.40   6 3.40
   4  0.500  0.500  0.000-   3 2.41   5 2.41   6 2.41   7 2.41
   5  0.751  0.251  0.002-   2 2.40   4 2.41   8 2.41   1 2.42  10 3.26   9 3.26  10 3.27   9 3.27
                             6 3.40   7 3.40   6 3.40   7 3.40
   6  0.749  0.751  0.500-   1 2.40   8 2.41   4 2.41   2 2.42  10 3.26   9 3.26  10 3.27   9 3.27
                             5 3.40   3 3.40   5 3.40   3 3.40
   7  0.251  0.249  0.500-   1 2.40   4 2.41   8 2.41   2 2.42  10 3.26   9 3.26   9 3.27  10 3.27
                             3 3.40   5 3.40   3 3.40   5 3.40
   8  0.000  0.000  0.000-   3 2.41   5 2.41   7 2.41   6 2.41
   9  0.250  0.750  0.500-   1 2.21   2 2.21   3 3.26   6 3.26   7 3.26   5 3.26   7 3.27   6 3.27
                             3 3.27   5 3.27
  10  0.750  0.250  0.500-   1 2.21   2 2.21   5 3.26   6 3.26   7 3.26   3 3.26   6 3.27   7 3.27
                             5 3.27   3 3.27

  LATTYP: Found a base centered monoclinic cell.
 ALAT       =     8.8399411915
 B/A-ratio  =     1.0893640020
 C/A-ratio  =     0.7393770907
 COS(beta)  =    -0.6762338693

  Lattice vectors:

 A1 = (   5.8125918687,   0.0000000000,  -2.9889338183)
 A2 = (  -2.1645068366,   5.3945467267,  -2.9889338183)
 A3 = (   0.0000000000,   0.0000000000,   6.5360500000)

Analysis of symmetry for initial positions (statically):
 Subroutine PRICEL returns:
 Original cell was already a primitive cell.

 Routine SETGRP: Setting up the symmetry group for a
 base centered monoclinic supercell.

 Subroutine GETGRP returns: Found  4 space group operations
 (whereof  2 operations were pure point group operations)
 out of a pool of  4 trial point group operations.

The static configuration has the point symmetry S_2 .
 The point group associated with its full space group is C_2h.

Analysis of symmetry for dynamics (positions and initial velocities):
 Subroutine PRICEL returns:
 Original cell was already a primitive cell.

 Routine SETGRP: Setting up the symmetry group for a
 base centered monoclinic supercell.

 Subroutine GETGRP returns: Found  4 space group operations
 (whereof  2 operations were pure point group operations)
 out of a pool of  4 trial point group operations.

The dynamic configuration has the point symmetry S_2 .
 The point group associated with its full space group is C_2h.

 Subroutine INISYM returns: Found  4 space group operations
 (whereof  2 operations are pure point group operations),
 and found     1 'primitive' translations

                                     Primitive cell

  volume of cell :     204.9463

  direct lattice vectors                    reciprocal lattice vectors
     5.812591869  0.000000000 -2.988933818     0.172040292  0.069029412  0.000000000
    -2.164506837  5.394546727 -2.988933818     0.000000000  0.185372386  0.000000000
     0.000000000  0.000000000  6.536050000     0.078673977  0.116337870  0.152997606

  length of vectors
     6.536050000  6.536050000  6.536050000     0.185372386  0.185372386  0.207683321

  position of ions in fractional coordinates (direct lattice)
     0.500000000  0.000000000  0.500000000
     0.000000000  0.500000000  0.500000000
     0.249060000  0.749060000  0.998120000
     0.500000000  0.500000000  1.000000000
     0.750940000  0.250940000  0.001880000
     0.749060000  0.750940000  0.500000000
     0.250940000  0.249060000  0.500000000
     0.000000000  0.000000000  0.000000000
     0.250000000  0.750000000  0.500000000
     0.750000000  0.250000000  0.500000000

  ion indices of the primitive-cell ions
   primitive index   ion index
                 1           1
                 2           2
                 3           3
                 4           4
                 5           5
                 6           6
                 7           7
                 8           8
                 9           9
                10          10

 KPOINTS: EA

Automatic generation of k-mesh.
 Grid dimensions read from file:
 generate k-points for:    7    7    7

 Generating k-lattice:

  Cartesian coordinates                     Fractional coordinates (reciprocal lattice)
     0.024577185  0.009861345  0.000000000     0.142857143 -0.000000000  0.000000000
     0.000000000  0.026481769  0.000000000     0.000000000  0.142857143  0.000000000
     0.011239140  0.016619696  0.021856801     0.000000000  0.000000000  0.142857143

  Length of vectors
     0.026481769  0.026481769  0.029669046

  Shift w.r.t. Gamma in fractional coordinates (k-lattice)
     0.000000000  0.000000000  0.000000000

 Subroutine IBZKPT returns following result:

 Found    100 irreducible k-points:

 Following reciprocal coordinates:
            Coordinates               Weight
  0.000000  0.000000  0.000000      1.000000
  0.142857 -0.000000  0.000000      4.000000
  0.285714 -0.000000  0.000000      4.000000
  0.428571 -0.000000  0.000000      4.000000
  0.142857  0.142857  0.000000      2.000000
  0.285714  0.142857  0.000000      4.000000
  0.428571  0.142857  0.000000      4.000000
 -0.428571  0.142857  0.000000      4.000000
 -0.285714  0.142857  0.000000      4.000000
 -0.142857  0.142857  0.000000      2.000000
  0.285714  0.285714  0.000000      2.000000
  0.428571  0.285714  0.000000      4.000000
 -0.428571  0.285714  0.000000      4.000000
 -0.285714  0.285714  0.000000      2.000000
  0.428571  0.428571  0.000000      2.000000
 -0.428571  0.428571  0.000000      2.000000
  0.000000 -0.000000  0.142857      2.000000
  0.142857 -0.000000  0.142857      4.000000
  0.285714 -0.000000  0.142857      4.000000
  0.428571 -0.000000  0.142857      4.000000
 -0.428571  0.000000  0.142857      4.000000
 -0.285714  0.000000  0.142857      4.000000
 -0.142857  0.000000  0.142857      4.000000
  0.142857  0.142857  0.142857      2.000000
  0.285714  0.142857  0.142857      4.000000
  0.428571  0.142857  0.142857      4.000000
 -0.428571  0.142857  0.142857      4.000000
 -0.285714  0.142857  0.142857      4.000000
 -0.142857  0.142857  0.142857      4.000000
  0.285714  0.285714  0.142857      2.000000
  0.428571  0.285714  0.142857      4.000000
 -0.428571  0.285714  0.142857      4.000000
 -0.285714  0.285714  0.142857      4.000000
 -0.142857  0.285714  0.142857      4.000000
  0.428571  0.428571  0.142857      2.000000
 -0.428571  0.428571  0.142857      4.000000
 -0.285714  0.428571  0.142857      4.000000
 -0.142857  0.428571  0.142857      4.000000
 -0.428571 -0.428571  0.142857      2.000000
 -0.285714 -0.428571  0.142857      4.000000
 -0.142857 -0.428571  0.142857      4.000000
 -0.285714 -0.285714  0.142857      2.000000
 -0.142857 -0.285714  0.142857      4.000000
 -0.142857 -0.142857  0.142857      2.000000
  0.000000 -0.000000  0.285714      2.000000
  0.142857 -0.000000  0.285714      4.000000
  0.285714 -0.000000  0.285714      4.000000
  0.428571 -0.000000  0.285714      4.000000
 -0.428571  0.000000  0.285714      4.000000
 -0.285714  0.000000  0.285714      4.000000
 -0.142857 -0.000000  0.285714      4.000000
  0.142857  0.142857  0.285714      2.000000
  0.285714  0.142857  0.285714      4.000000
  0.428571  0.142857  0.285714      4.000000
 -0.428571  0.142857  0.285714      4.000000
 -0.285714  0.142857  0.285714      4.000000
 -0.142857  0.142857  0.285714      4.000000
  0.285714  0.285714  0.285714      2.000000
  0.428571  0.285714  0.285714      4.000000
 -0.428571  0.285714  0.285714      4.000000
[...]
  0.285714  0.285714  0.428571      2.000000
  0.428571  0.285714  0.428571      4.000000
 -0.428571  0.285714  0.428571      4.000000
 -0.285714  0.285714  0.428571      4.000000
 -0.142857  0.285714  0.428571      4.000000
  0.428571  0.428571  0.428571      2.000000
 -0.428571  0.428571  0.428571      4.000000
 -0.285714  0.428571  0.428571      4.000000
 -0.142857  0.428571  0.428571      4.000000
 -0.428571 -0.428571  0.428571      2.000000
 -0.285714 -0.428571  0.428571      4.000000
 -0.142857 -0.428571  0.428571      4.000000
 -0.285714 -0.285714  0.428571      2.000000
 -0.142857 -0.285714  0.428571      4.000000
 -0.142857 -0.142857  0.428571      2.000000

 Following cartesian coordinates:
            Coordinates               Weight
  0.000000  0.000000  0.000000      1.000000
  0.024577  0.009861  0.000000      4.000000
  0.049154  0.019723  0.000000      4.000000
  0.073732  0.029584  0.000000      4.000000
[...]
  -0.28571429  0.00000000  0.14285714       0.012
  -0.14285714  0.00000000  0.14285714       0.012
   0.14285714  0.14285714  0.14285714       0.006
   0.28571429  0.14285714  0.14285714       0.012
   0.42857143  0.14285714  0.14285714       0.012
  -0.42857143  0.14285714  0.14285714       0.012
  -0.28571429  0.14285714  0.14285714       0.012
  -0.14285714  0.14285714  0.14285714       0.012
   0.28571429  0.28571429  0.14285714       0.006
   0.42857143  0.28571429  0.14285714       0.012
  -0.42857143  0.28571429  0.14285714       0.012
  -0.28571429  0.28571429  0.14285714       0.012
  -0.14285714  0.28571429  0.14285714       0.012
   0.42857143  0.42857143  0.14285714       0.006
  -0.42857143  0.42857143  0.14285714       0.012
  -0.28571429  0.42857143  0.14285714       0.012
  -0.14285714  0.42857143  0.14285714       0.012
  -0.42857143 -0.42857143  0.14285714       0.006
  -0.28571429 -0.42857143  0.14285714       0.012
  -0.14285714 -0.42857143  0.14285714       0.012
  -0.28571429 -0.28571429  0.14285714       0.006
  -0.14285714 -0.28571429  0.14285714       0.012
  -0.14285714 -0.14285714  0.14285714       0.006
   0.00000000 -0.00000000  0.28571429       0.006
   0.14285714 -0.00000000  0.28571429       0.012
   0.28571429 -0.00000000  0.28571429       0.012
   0.42857143 -0.00000000  0.28571429       0.012
  -0.42857143  0.00000000  0.28571429       0.012
  -0.28571429  0.00000000  0.28571429       0.012
  -0.14285714 -0.00000000  0.28571429       0.012
   0.14285714  0.14285714  0.28571429       0.006
   0.28571429  0.14285714  0.28571429       0.012
   0.42857143  0.14285714  0.28571429       0.012
  -0.42857143  0.14285714  0.28571429       0.012
  -0.28571429  0.14285714  0.28571429       0.012
  -0.14285714  0.14285714  0.28571429       0.012
   0.28571429  0.28571429  0.28571429       0.006
   0.42857143  0.28571429  0.28571429       0.012
  -0.42857143  0.28571429  0.28571429       0.012
[...]
   0.28571429  0.28571429  0.42857143       0.006
   0.42857143  0.28571429  0.42857143       0.012
  -0.42857143  0.28571429  0.42857143       0.012
  -0.28571429  0.28571429  0.42857143       0.012
  -0.14285714  0.28571429  0.42857143       0.012
   0.42857143  0.42857143  0.42857143       0.006
  -0.42857143  0.42857143  0.42857143       0.012
  -0.28571429  0.42857143  0.42857143       0.012
  -0.14285714  0.42857143  0.42857143       0.012
  -0.42857143 -0.42857143  0.42857143       0.006
  -0.28571429 -0.42857143  0.42857143       0.012
  -0.14285714 -0.42857143  0.42857143       0.012
  -0.28571429 -0.28571429  0.42857143       0.006
  -0.14285714 -0.28571429  0.42857143       0.012
  -0.14285714 -0.14285714  0.42857143       0.006

 position of ions in fractional coordinates (direct lattice)
   0.50000000  0.00000000  0.50000000
   0.00000000  0.50000000  0.50000000
   0.24906000  0.74906000  0.99812000
   0.50000000  0.50000000  0.00000000
   0.75094000  0.25094000  0.00188000
   0.74906000  0.75094000  0.50000000
   0.25094000  0.24906000  0.50000000
   0.00000000  0.00000000  0.00000000
   0.25000000  0.75000000  0.50000000
   0.75000000  0.25000000  0.50000000

 position of ions in cartesian coordinates  (Angst):
   2.90629593  0.00000000  1.77355809
  -1.08225342  2.69727336  1.77355809
  -0.17366136  4.04083917  3.54044760
   1.82404252  2.69727336 -2.98893382
   3.82174639  1.35370756 -2.98226524
   2.72856530  4.05098092 -1.21537573
   0.91951973  1.34356581  1.77355809
   0.00000000  0.00000000  0.00000000
  -0.17023216  4.04591005  0.27909118
   3.81831719  1.34863668  0.27909118

 k-point   1 :   0.0000 0.0000 0.0000  plane waves:    6789
 k-point   2 :   0.1429-0.0000 0.0000  plane waves:    6836
 k-point   3 :   0.2857-0.0000 0.0000  plane waves:    6829
 k-point   4 :   0.4286-0.0000 0.0000  plane waves:    6837
 k-point   5 :   0.1429 0.1429 0.0000  plane waves:    6834
 k-point   6 :   0.2857 0.1429 0.0000  plane waves:    6831
 k-point   7 :   0.4286 0.1429 0.0000  plane waves:    6839
 k-point   8 :  -0.4286 0.1429 0.0000  plane waves:    6828
 k-point   9 :  -0.2857 0.1429 0.0000  plane waves:    6833
 k-point  10 :  -0.1429 0.1429 0.0000  plane waves:    6837
 k-point  11 :   0.2857 0.2857 0.0000  plane waves:    6844
 k-point  12 :   0.4286 0.2857 0.0000  plane waves:    6842
 k-point  13 :  -0.4286 0.2857 0.0000  plane waves:    6830
 k-point  14 :  -0.2857 0.2857 0.0000  plane waves:    6837
 k-point  15 :   0.4286 0.4286 0.0000  plane waves:    6829
 k-point  16 :  -0.4286 0.4286 0.0000  plane waves:    6838
 k-point  17 :   0.0000-0.0000 0.1429  plane waves:    6837
 k-point  18 :   0.1429-0.0000 0.1429  plane waves:    6834
 k-point  19 :   0.2857-0.0000 0.1429  plane waves:    6828
 k-point  20 :   0.4286-0.0000 0.1429  plane waves:    6839
 k-point  21 :  -0.4286 0.0000 0.1429  plane waves:    6831
 k-point  22 :  -0.2857 0.0000 0.1429  plane waves:    6834
 k-point  23 :  -0.1429 0.0000 0.1429  plane waves:    6837
 k-point  24 :   0.1429 0.1429 0.1429  plane waves:    6834
 k-point  25 :   0.2857 0.1429 0.1429  plane waves:    6837
 k-point  26 :   0.4286 0.1429 0.1429  plane waves:    6837
 k-point  27 :  -0.4286 0.1429 0.1429  plane waves:    6836
 k-point  28 :  -0.2857 0.1429 0.1429  plane waves:    6833
 k-point  29 :  -0.1429 0.1429 0.1429  plane waves:    6825
 k-point  30 :   0.2857 0.2857 0.1429  plane waves:    6830
 k-point  31 :   0.4286 0.2857 0.1429  plane waves:    6829
 k-point  32 :  -0.4286 0.2857 0.1429  plane waves:    6830
 k-point  33 :  -0.2857 0.2857 0.1429  plane waves:    6848
 k-point  34 :  -0.1429 0.2857 0.1429  plane waves:    6831
 k-point  35 :   0.4286 0.4286 0.1429  plane waves:    6829
 k-point  36 :  -0.4286 0.4286 0.1429  plane waves:    6844
 k-point  37 :  -0.2857 0.4286 0.1429  plane waves:    6842
 k-point  38 :  -0.1429 0.4286 0.1429  plane waves:    6845
 k-point  39 :  -0.4286-0.4286 0.1429  plane waves:    6858
 k-point  40 :  -0.2857-0.4286 0.1429  plane waves:    6848
 k-point  41 :  -0.1429-0.4286 0.1429  plane waves:    6836
 k-point  42 :  -0.2857-0.2857 0.1429  plane waves:    6856
 k-point  43 :  -0.1429-0.2857 0.1429  plane waves:    6834
 k-point  44 :  -0.1429-0.1429 0.1429  plane waves:    6821
 k-point  45 :   0.0000-0.0000 0.2857  plane waves:    6837
 k-point  46 :   0.1429-0.0000 0.2857  plane waves:    6830
 k-point  47 :   0.2857-0.0000 0.2857  plane waves:    6842
 k-point  48 :   0.4286-0.0000 0.2857  plane waves:    6844
 k-point  49 :  -0.4286 0.0000 0.2857  plane waves:    6831
 k-point  50 :  -0.2857 0.0000 0.2857  plane waves:    6829
 k-point  51 :  -0.1429-0.0000 0.2857  plane waves:    6834
 k-point  52 :   0.1429 0.1429 0.2857  plane waves:    6829
 k-point  53 :   0.2857 0.1429 0.2857  plane waves:    6830
 k-point  54 :   0.4286 0.1429 0.2857  plane waves:    6837
 k-point  55 :  -0.4286 0.1429 0.2857  plane waves:    6828
 k-point  56 :  -0.2857 0.1429 0.2857  plane waves:    6831
 k-point  57 :  -0.1429 0.1429 0.2857  plane waves:    6848
 k-point  58 :   0.2857 0.2857 0.2857  plane waves:    6830
 k-point  59 :   0.4286 0.2857 0.2857  plane waves:    6842
 k-point  60 :  -0.4286 0.2857 0.2857  plane waves:    6842
[...]
 k-point  86 :   0.2857 0.2857 0.4286  plane waves:    6844
 k-point  87 :   0.4286 0.2857 0.4286  plane waves:    6848
 k-point  88 :  -0.4286 0.2857 0.4286  plane waves:    6854
 k-point  89 :  -0.2857 0.2857 0.4286  plane waves:    6841
 k-point  90 :  -0.1429 0.2857 0.4286  plane waves:    6858
 k-point  91 :   0.4286 0.4286 0.4286  plane waves:    6863
 k-point  92 :  -0.4286 0.4286 0.4286  plane waves:    6874
 k-point  93 :  -0.2857 0.4286 0.4286  plane waves:    6863
 k-point  94 :  -0.1429 0.4286 0.4286  plane waves:    6848
 k-point  95 :  -0.4286-0.4286 0.4286  plane waves:    6878
 k-point  96 :  -0.2857-0.4286 0.4286  plane waves:    6858
 k-point  97 :  -0.1429-0.4286 0.4286  plane waves:    6836
 k-point  98 :  -0.2857-0.2857 0.4286  plane waves:    6856
 k-point  99 :  -0.1429-0.2857 0.4286  plane waves:    6831
 k-point 100 :  -0.1429-0.1429 0.4286  plane waves:    6834

 maximum and minimum number of plane-waves per node :      3459     3378

 maximum number of plane-waves:      6878
 maximum index in each direction:
   IXMAX=   13   IYMAX=   13   IZMAX=   13
   IXMIN=  -13   IYMIN=  -13   IZMIN=  -13

 parallel 3D FFT for wavefunctions:
    minimum data exchange during FFTs selected (reduces bandwidth)
 parallel 3D FFT for charge:
    minimum data exchange during FFTs selected (reduces bandwidth)

 Broyden mixing: mesh for mixing (old mesh)
   NGX = 27   NGY = 27   NGZ = 27
  (NGX  =108   NGY  =108   NGZ  =108)
  gives a total of  19683 points

 initial charge density was supplied:
 charge density of overlapping atoms calculated
 number of electron      98.0000000 magnetization
 keeping initial charge density in first step

 Maximum index for augmentation-charges        21911 (set IRDMAX)

 First call to EWALD:  gamma=   0.301
 Maximum number of real-space cells 3x 3x 3
 Maximum number of reciprocal cells 3x 3x 3

--------------------------------------- Iteration      1(   1)  ---------------------------------------

 eigenvalue-minimisations  : 13008
 total energy-change (2. order) : 0.9786715E+03  (-0.6459203E+04)
 number of electron      98.0000000 magnetization
 augmentation part       98.0000000 magnetization

 Free energy of the ion-electron system (eV)
  alpha Z        PSCENC =       407.64059476
  Ewald energy   TEWEN  =     -7473.29666116
  -Hartree energ DENC   =     -3604.02324059
  -exchange      EXHF   =         0.00000000
  -V(xc)+E(xc)   XCENC  =       458.25809976
  PAW double counting   =      9166.97638771    -9126.13493418
  entropy T*S    EENTRO =        -0.00072078
  eigenvalues    EBANDS =      -372.91545439
  atomic energy  EATOM  =     11522.16744521
  free energy    TOTEN  =       978.67151635 eV

  energy without entropy =      978.67223713  energy(sigma->0) =      978.67187674

[...]

 eigenvalue-minimisations  : 13272
 total energy-change (2. order) :-0.1142595E+04  (-0.1110811E+04)
 number of electron      98.0000000 magnetization
 augmentation part       98.0000000 magnetization

[...]

 eigenvalue-minimisations  :     0
 total energy-change (2. order) : 0.5778793E+02  (-0.1211892E+02)
 number of electron      98.0000001 magnetization
 augmentation part       14.3253237 magnetization

[...]

 eigenvalue-minimisations  :     0
 total energy-change (2. order) :-0.1031367E-08  ( 0.5186391E-08)
 number of electron      98.0000001 magnetization
 augmentation part       14.3236007 magnetization

[...]

--------------------------------------- Iteration      1(  44)  ---------------------------------------

 eigenvalue-minimisations  :     0
 total energy-change (2. order) :-0.3001333E-09  (-0.3287071E-09)
 number of electron      98.0000001 magnetization
 augmentation part       14.3236012 magnetization

 Free energy of the ion-electron system (eV)
  alpha Z        PSCENC =       407.64059476
  Ewald energy   TEWEN  =     -7473.29666116
  -Hartree energ DENC   =     -3520.32166112
  -exchange      EXHF   =         0.00000000
  -V(xc)+E(xc)   XCENC  =       467.69437876
  PAW double counting   =     10879.36034405   -10852.86179379
  entropy T*S    EENTRO =        -0.00377452
  eigenvalues    EBANDS =     -1601.65730651
  atomic energy  EATOM  =     11522.16744521
  free energy    TOTEN  =      -171.27843431 eV

  energy without entropy =     -171.27465979  energy(sigma->0) =     -171.27654705

  average scaling for gradient   0.9308

 average (electrostatic) potential at core
  the test charge radii are     0.7672  1.0818  0.9892
  (the norm of the test charge is              1.0000)
       1 -27.5977       2 -27.5977       3 -80.5393       4 -80.2702       5 -80.5393
       6 -80.5394       7 -80.5394       8 -80.2702       9 -86.7662      10 -86.7662

 E-fermi :   6.3627     XC(G=0): -11.1355     alpha+bet :-12.5708

 Fermi energy:         6.3627285954

 k-point     1 :       0.0000    0.0000    0.0000
  band No.  band energies     occupation
      1     -56.8246      2.00000
      2     -56.5747      2.00000
      3     -56.5747      2.00000
      4     -56.5628      2.00000
      5     -56.4031      2.00000
      6     -56.1431      2.00000
      7     -31.3686      2.00000
      8     -31.3685      2.00000
      9     -30.1284      2.00000
     10     -30.1033      2.00000
     11     -30.0734      2.00000
     12     -30.0237      2.00000
     13     -29.9902      2.00000
     14     -29.9902      2.00000
     15     -29.9302      2.00000
     16     -29.9301      2.00000
     17     -29.9292      2.00000
     18     -29.9291      2.00000
     19     -29.9132      2.00000
     20     -29.8644      2.00000
     21     -29.7357      2.00000
     22     -29.5566      2.00000
     23     -28.5791      2.00000
     24     -28.5789      2.00000
     25      -4.2706      2.00000
     26      -2.0926      2.00000
     27      -1.4493      2.00000
     28       1.5472      2.00000
     29       1.8388      2.00000
     30       2.0032      2.00000
     31       2.0032      2.00000
     32       2.0092      2.00000
     33       2.1422      2.00000
     34       2.4452      2.00000
     35       3.2350      2.00000
     36       3.2351      2.00000
     37       3.9782      2.00000
     38       3.9783      2.00000
     39       4.0577      2.00000
     40       4.0578      2.00000
     41       4.1629      2.00000
     42       5.5221      2.00000
     43       5.5692      2.00000
     44       5.5743      2.00000
     45       5.5746      2.00000
     46       5.9073      2.00000
     47       6.0802      2.00000
     48       6.2711      2.00000
     49       6.2713      2.00000
     50       6.3999      0.00854
     51       6.4083      0.00126
     52       6.7808      0.00000
     53       6.7809      0.00000
     54       6.8243      0.00000
     55       7.0397      0.00000
     56       7.0397      0.00000
     57       7.1163      0.00000
     58       7.5205      0.00000
     59       7.9777      0.00000
     60       8.5835      0.00000

[...]

 k-point   100 :      -0.1429   -0.1429    0.4286
  band No.  band energies     occupation
      1     -56.7723      2.00000
      2     -56.6862      2.00000
      3     -56.5747      2.00000
      4     -56.5681      2.00000
      5     -56.2848      2.00000
      6     -56.1969      2.00000
      7     -31.3588      2.00000
      8     -31.0781      2.00000
      9     -30.8968      2.00000
     10     -30.1155      2.00000
     11     -30.1011      2.00000
     12     -30.0634      2.00000
     13     -30.0013      2.00000
     14     -29.9491      2.00000
     15     -29.9383      2.00000
     16     -29.9345      2.00000
     17     -29.9295      2.00000
     18     -29.9196      2.00000
     19     -29.8103      2.00000
     20     -29.6597      2.00000
     21     -29.5957      2.00000
     22     -29.1400      2.00000
     23     -28.9204      2.00000
     24     -28.5835      2.00000
     25      -3.8259      2.00000
     26      -2.7628      2.00000
     27      -0.9952      2.00000
     28       0.7836      2.00000
     29       1.7930      2.00000
     30       1.8698      2.00000
     31       2.0134      2.00000
     32       2.1355      2.00000
     33       2.4229      2.00000
     34       2.9219      2.00000
     35       3.2418      2.00000
     36       3.3988      2.00000
     37       3.4945      2.00000
     38       3.7849      2.00000
     39       3.9236      2.00000
     40       4.2007      2.00000
     41       4.2848      2.00000
     42       4.4983      2.00000
     43       5.2509      2.00000
     44       5.5676      2.00000
     45       5.6125      2.00000
     46       5.8452      2.00000
     47       5.8478      2.00000
     48       5.9083      2.00000
     49       6.1603      2.00000
     50       6.4090      0.00108
     51       6.5909      0.00000
     52       6.5984      0.00000
     53       7.1008      0.00000
     54       7.1622      0.00000
     55       7.2374      0.00000
     56       7.3844      0.00000
     57       7.6720      0.00000
     58       7.9700      0.00000
     59       8.0111      0.00000
     60       8.8382      0.00000

 soft charge-density along one line, spin component           1
         0         1         2         3         4         5         6         7         8         9
 total charge-density along one line

------------------------ aborting loop because EDIFF is reached ----------------------------------------

  FREE ENERGIE OF THE ION-ELECTRON SYSTEM (eV)
  free  energy   TOTEN  =      -171.27843431 eV

  energy  without entropy=     -171.27465979  energy(sigma->0) =     -171.27654705

 writing wavefunctions