 vasp.6.2.0 18Jan21 (build Jan 05 2022 15:41:44) complex

 executed on             LinuxIFC date 2025.05.07  16:02:01

 INCAR:
   SYSTEM = routine with relax: pwdword
   ICHARG = 2
   NPAR = 6
   KPAR = 2
   NCORE = 2
   ADDGRID = T
   PREC = Acc
   ENCUT = 600
   METAGGA = R2SCAN
   LASPH = .TRUE.
   LMIXTAU = .FALSE.
   ALGO = A
   EDIFF = 1E-9
   NELM = 100
   NELMIN = 6
   IALGO = 38
   LREAL = F
   NSW = 0
   ISIF = -1
   ISMEAR = 0
   SIGMA = 0.02
   SYMPREC = 1E-4

 POTCAR:    PAW_PBE B 06Sep2000
 POTCAR:    PAW_PBE Mo_sv 02Feb2006
 POTCAR:    PAW_PBE Si 05Jan2001
|           W    W    AA    RRRRR   N    N  II  N    N   GGGG   !!!           |
|           W    W   A  A   R    R  NN   N  II  NN   N  G    G  !!!           |
|           W    W  A    A  R    R  N N  N  II  N N  N  G       !!!           |
|           W WW W  AAAAAA  RRRRR   N  N N  II  N  N N  G  GGG   !            |
|           WW  WW  A    A  R   R   N   NN  II  N   NN  G    G                |
|           W    W  A    A  R    R  N    N  II  N    N   GGGG   !!!           |
|     For optimal performance we recommend to set                             |
|       NCORE = 2 up to number-of-cores-per-socket                            |
|     This setting can greatly improve the performance of VASP for DFT.       |
|     The default, NCORE=1 might be grossly inefficient on modern             |
|     multi-core architectures or massively parallel machines. Do your        |
|     Unfortunately you need to use the default for GW and RPA                |
|     calculations (for HF NCORE is supported but not extensively tested      |
|     yet).                                                                   |

 POTCAR:    PAW_PBE B 06Sep2000
   VRHFIN =B: s2p1

   TITEL  = PAW_PBE B 06Sep2000
   POMASS =   10.811; ZVAL   =    3.000    mass and valenz
   ENMAX  =  318.614; ENMIN  =  238.960 eV

 POTCAR:    PAW_PBE Mo_sv 02Feb2006
   VRHFIN =Mo: 4p5s4d

   TITEL  = PAW_PBE Mo_sv 02Feb2006
   POMASS =   95.940; ZVAL   =   14.000    mass and valenz
   ENMAX  =  242.676; ENMIN  =  182.007 eV

 POTCAR:    PAW_PBE Si 05Jan2001
   VRHFIN =Si: s2p2

   TITEL  = PAW_PBE Si 05Jan2001
   POMASS =   28.085; ZVAL   =    4.000    mass and valenz
   ENMAX  =  245.345; ENMIN  =  184.009 eV

  PAW_PBE B 06Sep2000                   :
  PAW_PBE Mo_sv 02Feb2006               :
  PAW_PBE Si 05Jan2001                  :

 POSCAR: EA67
  positions in direct lattice

 METAGGA = R2SCA    LMAXTAU =  6    LMIXTAU =  F

 ion  position               nearest neighbor table
   1  0.269  0.231  0.500-  11 1.14   8 2.68
   2  0.731  0.769  0.500-  12 1.14   8 2.68
   3  0.231  0.731  0.962-  10 1.14   6 2.68
   4  0.769  0.269  0.038-   9 1.14   6 2.68
   5  0.250  0.250  0.000-
   6  0.000  0.500  0.500-  11 1.98  12 1.98   3 2.68   4 2.68
   7  0.750  0.750  0.000-
   8  0.500  0.000  0.500-   9 1.98  10 1.98   1 2.68   2 2.68
   9  0.670  0.170  0.841-   4 1.14   8 1.98
  10  0.330  0.830  0.159-   3 1.14   8 1.98
  11  0.170  0.330  0.500-   1 1.14   6 1.98
  12  0.830  0.670  0.500-   2 1.14   6 1.98

  LATTYP: Found a body centered tetragonal cell.
 ALAT       =     8.2054906697
 C/A-ratio  =     1.0168181650

  Lattice vectors:

 A1 = (   6.7184626356,   0.0000000000,  -2.4353656710)
 A2 = (  -3.3032591235,   5.8503178845,  -2.4353656710)
 A3 = (   0.0000000000,   0.0000000000,   7.1462400000)

Analysis of symmetry for initial positions (statically):
 Subroutine PRICEL returns:
 Original cell was already a primitive cell.

 Routine SETGRP: Setting up the symmetry group for a
 body centered tetragonal supercell.

 Subroutine GETGRP returns: Found 16 space group operations
 (whereof  8 operations were pure point group operations)
 out of a pool of 16 trial point group operations.

The static configuration has the point symmetry C_4h.
 The point group associated with its full space group is D_4h.

Analysis of symmetry for dynamics (positions and initial velocities):
 Subroutine PRICEL returns:
 Original cell was already a primitive cell.

 Routine SETGRP: Setting up the symmetry group for a
 body centered tetragonal supercell.

 Subroutine GETGRP returns: Found 16 space group operations
 (whereof  8 operations were pure point group operations)
 out of a pool of 16 trial point group operations.

The dynamic configuration has the point symmetry C_4h.
 The point group associated with its full space group is D_4h.

 Subroutine INISYM returns: Found 16 space group operations
 (whereof  8 operations are pure point group operations),
 and found     1 'primitive' translations

                                     Primitive cell

  volume of cell :     280.8840

  direct lattice vectors                    reciprocal lattice vectors
     6.718462636  0.000000000 -2.435365671     0.148843575  0.084041399  0.000000000
    -3.303259123  5.850317884 -2.435365671     0.000000000  0.170930883  0.000000000
     0.000000000  0.000000000  7.146240000     0.050724372  0.086891952  0.139933727

  length of vectors
     7.146240000  7.146240000  7.146240000     0.170930883  0.170930883  0.172350286

  position of ions in fractional coordinates (direct lattice)
     0.269050000  0.230950000  0.500000000
     0.730950000  0.769050000  0.500000000
     0.230950000  0.730950000  0.961910000
     0.769050000  0.269050000  0.038090000
     0.250000000  0.250000000  1.000000000
     0.000000000  0.500000000  0.500000000
     0.750000000  0.750000000  1.000000000
     0.500000000  0.000000000  0.500000000
     0.670500000  0.170500000  0.841000000
     0.329500000  0.829500000  0.159000000
     0.170500000  0.329500000  0.500000000
     0.829500000  0.670500000  0.500000000

  ion indices of the primitive-cell ions
   primitive index   ion index
                 1           1
                 2           2
                 3           3
                 4           4
                 5           5
                 6           6
                 7           7
                 8           8
                 9           9
                10          10
                11          11
                12          12

 KPOINTS: EA

Automatic generation of k-mesh.
 Grid dimensions read from file:
 generate k-points for:    6    6    6

 Generating k-lattice:

  Cartesian coordinates                     Fractional coordinates (reciprocal lattice)
     0.024807263  0.014006900  0.000000000     0.166666667  0.000000000  0.000000000
     0.000000000  0.028488480  0.000000000     0.000000000  0.166666667  0.000000000
     0.008454062  0.014481992  0.023322288     0.000000000  0.000000000  0.166666667

  Length of vectors
     0.028488480  0.028488480  0.028725048

  Shift w.r.t. Gamma in fractional coordinates (k-lattice)
     0.000000000  0.000000000  0.000000000

 Subroutine IBZKPT returns following result:

 Found     30 irreducible k-points:

 Following reciprocal coordinates:
            Coordinates               Weight
  0.000000  0.000000  0.000000      1.000000
  0.166667  0.000000  0.000000      8.000000
  0.333333 -0.000000  0.000000      8.000000
  0.500000  0.000000  0.000000      4.000000
  0.166667  0.166667  0.000000      8.000000
  0.333333  0.166667  0.000000     16.000000
  0.500000  0.166667  0.000000     16.000000
 -0.333333  0.166667  0.000000     16.000000
 -0.166667  0.166667  0.000000      4.000000
  0.333333  0.333333  0.000000      8.000000
  0.500000  0.333333  0.000000     16.000000
 -0.333333  0.333333  0.000000      4.000000
  0.500000  0.500000  0.000000      2.000000
  0.166667  0.166667  0.166667      8.000000
  0.333333  0.166667  0.166667      8.000000
 -0.166667  0.166667  0.166667      4.000000
  0.333333  0.333333  0.166667      4.000000
 -0.333333  0.333333  0.166667      8.000000
 -0.166667  0.333333  0.166667      8.000000
  0.500000  0.500000  0.166667      4.000000
 -0.333333  0.500000  0.166667     16.000000
 -0.166667  0.500000  0.166667      8.000000
 -0.333333 -0.333333  0.166667      8.000000
 -0.166667 -0.333333  0.166667      8.000000
 -0.166667 -0.166667  0.166667      2.000000
 -0.333333  0.333333  0.333333      4.000000
  0.500000  0.500000  0.333333      4.000000
 -0.333333  0.500000  0.333333      8.000000
 -0.333333 -0.333333  0.333333      2.000000
  0.500000  0.500000  0.500000      1.000000

 Following cartesian coordinates:
            Coordinates               Weight
  0.000000  0.000000  0.000000      1.000000
  0.024807  0.014007  0.000000      8.000000
  0.049615  0.028014  0.000000      8.000000
  0.074422  0.042021  0.000000      4.000000
  0.024807  0.042495  0.000000      8.000000
  0.049615  0.056502  0.000000     16.000000
  0.074422  0.070509  0.000000     16.000000
 -0.049615  0.000475  0.000000     16.000000
 -0.024807  0.014482  0.000000      4.000000
  0.049615  0.084991  0.000000      8.000000
  0.074422  0.098998  0.000000     16.000000
 -0.049615  0.028963  0.000000      4.000000
  0.074422  0.127486  0.000000      2.000000
  0.033261  0.056977  0.023322      8.000000
  0.058069  0.070984  0.023322      8.000000
 -0.016353  0.028964  0.023322      4.000000
  0.058069  0.099473  0.023322      4.000000
 -0.041160  0.043445  0.023322      8.000000
 -0.016353  0.057452  0.023322      8.000000
  0.082876  0.141968  0.023322      4.000000
 -0.041160  0.071934  0.023322     16.000000
 -0.016353  0.085941  0.023322      8.000000
 -0.041160 -0.070509  0.023322      8.000000
 -0.016353 -0.056502  0.023322      8.000000
 -0.016353 -0.028013  0.023322      2.000000
 -0.032706  0.057927  0.046645      4.000000
  0.091330  0.156450  0.046645      4.000000
 -0.032706  0.086416  0.046645      8.000000
 -0.032706 -0.056027  0.046645      2.000000
  0.099784  0.170932  0.069967      1.000000

 SYSTEM =  routine with relax: pwdword
 POSCAR =  EA67

 Startparameter for this run:
   NWRITE =      2    write-flag & timer
   PREC   = acc       normal or accurate (medium, high low for compatibility)
   ISTART =      0    job   : 0-new  1-cont  2-samecut
   ICHARG =      2    charge: 1-file 2-atom 10-const
   ISPIN  =      1    spin polarized calculation?
   LNONCOLLINEAR =      F non collinear calculations
   LSORBIT =      F    spin-orbit coupling
   INIWAV =      1    electr: 0-lowe 1-rand  2-diag
   LASPH  =      T    aspherical Exc in radial PAW
   METAGGA=      F    non-selfconsistent MetaGGA calc.

 Electronic Relaxation 1
   ENCUT  =  600.0 eV  44.10 Ry    6.64 a.u.  14.27 14.27 14.27*2*pi/ulx,y,z
   ENINI  =  600.0     initial cutoff
   ENAUG  =  535.5 eV  augmentation charge cutoff
   NELM   =    100;   NELMIN=  6; NELMDL= -5     # of ELM steps
   EDIFF  = 0.1E-08   stopping-criterion for ELM
   LREAL  =      F    real-space projection
   NLSPLINE    = F    spline interpolate recip. space projectors
   LCOMPAT=      F    compatible to vasp.4.4
   GGA_COMPAT  = T    GGA compatible to vasp.4.4-vasp.4.6
   LMAXPAW     = -100 max onsite density
   LMAXMIX     =    2 max onsite mixed and CHGCAR
   VOSKOWN=      0    Vosko Wilk Nusair interpolation
   ROPT   =    0.00000   0.00000   0.00000
 Ionic relaxation
   EDIFFG = 0.1E-07   stopping-criterion for IOM
   NSW    =      0    number of steps for IOM
[...]
   LHFONE  =     F    Hartree Fock one center treatment
   AEXX    =    0.0000 exact exchange contribution

 Linear response parameters
   LEPSILON=     F    determine dielectric tensor
   LRPA    =     F    only Hartree local field effects (RPA)
   LNABLA  =     F    use nabla operator in PAW spheres
   LVEL    =     F    velocity operator in full k-point grid
   LINTERFAST=   F  fast interpolation
   KINTER  =     0    interpolate to denser k-point grid
   CSHIFT  =0.1000    complex shift for real part using Kramers Kronig
   OMEGAMAX=  -1.0    maximum frequency
   DEG_THRESHOLD= 0.2000000E-02 threshold for treating states as degnerate
   RTIME   =   -0.100 relaxation time in fs
  (WPLASMAI=    0.000 imaginary part of plasma frequency in eV, 0.658/RTIME)
   DFIELD  = 0.0000000 0.0000000 0.0000000 field for delta impulse in time

 Orbital magnetization related:
   ORBITALMAG=     F  switch on orbital magnetization
   LCHIMAG   =     F  perturbation theory with respect to B field
   DQ        =  0.001000  dq finite difference perturbation B field
   LLRAUG    =     F  two centre corrections for induced B field

 Static calculation
 charge density and potential will be updated during run
 non-spin polarized calculation
 Conjugate gradient for all bands (Freysoldt, et al. PRB 79, 241103 (2009))
 preconditioned conjugated gradient
 perform sub-space diagonalisation
    before iterative eigenvector-optimisation
 modified Broyden-mixing scheme, WC =      100.0
 initial mixing is a Kerker type mixing with AMIX =  0.4000 and BMIX =      1.0000
 Hartree-type preconditioning will be used
 using additional bands           12
 reciprocal scheme for non local part
 use partial core corrections
 no Harris-corrections to forces
 use gradient corrections
 use of overlap-Matrix (Vanderbilt PP)
 Gauss-broadening in eV      SIGMA  =   0.02

  energy-cutoff  :      600.00
  volume of cell :      280.88
      direct lattice vectors                 reciprocal lattice vectors
     6.718462636  0.000000000 -2.435365671     0.148843575  0.084041399  0.000000000
    -3.303259123  5.850317884 -2.435365671     0.000000000  0.170930883  0.000000000
     0.000000000  0.000000000  7.146240000     0.050724372  0.086891952  0.139933727

  length of vectors
     7.146240000  7.146240000  7.146240000     0.170930883  0.170930883  0.172350286

 k-points in units of 2pi/SCALE and weight: EA
   0.00000000  0.00000000  0.00000000       0.005
   0.02480726  0.01400690  0.00000000       0.037
   0.04961453  0.02801380  0.00000000       0.037
   0.07442179  0.04202070  0.00000000       0.019
   0.02480726  0.04249538  0.00000000       0.037
   0.04961453  0.05650228  0.00000000       0.074
   0.07442179  0.07050918  0.00000000       0.074
  -0.04961453  0.00047468  0.00000000       0.074
  -0.02480726  0.01448158  0.00000000       0.019
   0.04961453  0.08499076  0.00000000       0.037
   0.07442179  0.09899766  0.00000000       0.074
  -0.04961453  0.02896316  0.00000000       0.019
   0.07442179  0.12748614  0.00000000       0.009
   0.03326132  0.05697737  0.02332229       0.037
   0.05806859  0.07098427  0.02332229       0.037
  -0.01635320  0.02896357  0.02332229       0.019
   0.05806859  0.09947275  0.02332229       0.019
  -0.04116046  0.04344515  0.02332229       0.037
  -0.01635320  0.05745205  0.02332229       0.037
   0.08287585  0.14196813  0.02332229       0.019
  -0.04116046  0.07193363  0.02332229       0.074
  -0.01635320  0.08594053  0.02332229       0.037
  -0.04116046 -0.07050877  0.02332229       0.037
  -0.01635320 -0.05650187  0.02332229       0.037
  -0.01635320 -0.02801339  0.02332229       0.009
  -0.03270640  0.05792715  0.04664458       0.019
   0.09132991  0.15645012  0.04664458       0.019
  -0.03270640  0.08641563  0.04664458       0.037
  -0.03270640 -0.05602678  0.04664458       0.009
   0.09978397  0.17093212  0.06996686       0.005

 k-points in reciprocal lattice and weights: EA
   0.00000000  0.00000000  0.00000000       0.005
   0.16666667  0.00000000  0.00000000       0.037
   0.33333333 -0.00000000  0.00000000       0.037
   0.50000000  0.00000000  0.00000000       0.019
   0.16666667  0.16666667  0.00000000       0.037
   0.33333333  0.16666667  0.00000000       0.074
   0.50000000  0.16666667  0.00000000       0.074
  -0.33333333  0.16666667  0.00000000       0.074
  -0.16666667  0.16666667  0.00000000       0.019
   0.33333333  0.33333333  0.00000000       0.037
   0.50000000  0.33333333  0.00000000       0.074
  -0.33333333  0.33333333  0.00000000       0.019
   0.50000000  0.50000000  0.00000000       0.009
   0.16666667  0.16666667  0.16666667       0.037
   0.33333333  0.16666667  0.16666667       0.037
  -0.16666667  0.16666667  0.16666667       0.019
   0.33333333  0.33333333  0.16666667       0.019
  -0.33333333  0.33333333  0.16666667       0.037
  -0.16666667  0.33333333  0.16666667       0.037
   0.50000000  0.50000000  0.16666667       0.019
  -0.33333333  0.50000000  0.16666667       0.074
  -0.16666667  0.50000000  0.16666667       0.037
  -0.33333333 -0.33333333  0.16666667       0.037
  -0.16666667 -0.33333333  0.16666667       0.037
  -0.16666667 -0.16666667  0.16666667       0.009
  -0.33333333  0.33333333  0.33333333       0.019
   0.50000000  0.50000000  0.33333333       0.019
  -0.33333333  0.50000000  0.33333333       0.037
  -0.33333333 -0.33333333  0.33333333       0.009
   0.50000000  0.50000000  0.50000000       0.005

 position of ions in fractional coordinates (direct lattice)
   0.26905000  0.23095000  0.50000000
   0.73095000  0.76905000  0.50000000
   0.23095000  0.73095000  0.96191000
   0.76905000  0.26905000  0.03809000
   0.25000000  0.25000000  0.00000000
   0.00000000  0.50000000  0.50000000
   0.75000000  0.75000000  0.00000000
   0.50000000  0.00000000  0.50000000
   0.67050000  0.17050000  0.84100000
   0.32950000  0.82950000  0.15900000
   0.17050000  0.32950000  0.50000000
   0.82950000  0.67050000  0.50000000

 position of ions in cartesian coordinates  (Angst):
   1.04471468  1.35113092  2.35543716
   2.37048883  4.49918697 -0.07992851
  -0.86288831  4.27628986  4.53146148
   4.27809182  1.57402803 -2.25595282
   0.85380088  1.46257947 -1.21768284
  -1.65162956  2.92515894  2.35543716
   2.56140263  4.38773841 -3.65304851
   3.35923132  0.00000000  2.35543716
   3.94152352  0.99747920  3.96184531
  -0.52632000  4.85283869 -1.68633665
   0.05707400  1.92767974  2.35543716
   3.35812951  3.92263814 -0.07992851

 k-point   1 :   0.0000 0.0000 0.0000  plane waves:    9389
 k-point   2 :   0.1667 0.0000 0.0000  plane waves:    9383
 k-point   3 :   0.3333-0.0000 0.0000  plane waves:    9373
 k-point   4 :   0.5000 0.0000 0.0000  plane waves:    9384
 k-point   5 :   0.1667 0.1667 0.0000  plane waves:    9370
 k-point   6 :   0.3333 0.1667 0.0000  plane waves:    9378
 k-point   7 :   0.5000 0.1667 0.0000  plane waves:    9374
 k-point   8 :  -0.3333 0.1667 0.0000  plane waves:    9368
 k-point   9 :  -0.1667 0.1667 0.0000  plane waves:    9383
 k-point  10 :   0.3333 0.3333 0.0000  plane waves:    9369
 k-point  11 :   0.5000 0.3333 0.0000  plane waves:    9365
 k-point  12 :  -0.3333 0.3333 0.0000  plane waves:    9395
 k-point  13 :   0.5000 0.5000 0.0000  plane waves:    9380
 k-point  14 :   0.1667 0.1667 0.1667  plane waves:    9359
 k-point  15 :   0.3333 0.1667 0.1667  plane waves:    9370
 k-point  16 :  -0.1667 0.1667 0.1667  plane waves:    9381
 k-point  17 :   0.3333 0.3333 0.1667  plane waves:    9364
 k-point  18 :  -0.3333 0.3333 0.1667  plane waves:    9385
 k-point  19 :  -0.1667 0.3333 0.1667  plane waves:    9370
 k-point  20 :   0.5000 0.5000 0.1667  plane waves:    9362
 k-point  21 :  -0.3333 0.5000 0.1667  plane waves:    9381
 k-point  22 :  -0.1667 0.5000 0.1667  plane waves:    9379
 k-point  23 :  -0.3333-0.3333 0.1667  plane waves:    9385
 k-point  24 :  -0.1667-0.3333 0.1667  plane waves:    9374
 k-point  25 :  -0.1667-0.1667 0.1667  plane waves:    9381
 k-point  26 :  -0.3333 0.3333 0.3333  plane waves:    9356
 k-point  27 :   0.5000 0.5000 0.3333  plane waves:    9382
 k-point  28 :  -0.3333 0.5000 0.3333  plane waves:    9382
 k-point  29 :  -0.3333-0.3333 0.3333  plane waves:    9348
 k-point  30 :   0.5000 0.5000 0.5000  plane waves:    9384

 maximum and minimum number of plane-waves per node :      4727     4658

 maximum number of plane-waves:      9395
 maximum index in each direction:
   IXMAX=   14   IYMAX=   14   IZMAX=   14
   IXMIN=  -14   IYMIN=  -14   IZMIN=  -14

 parallel 3D FFT for wavefunctions:
    minimum data exchange during FFTs selected (reduces bandwidth)
 parallel 3D FFT for charge:
    minimum data exchange during FFTs selected (reduces bandwidth)

 Broyden mixing: mesh for mixing (old mesh)
   NGX = 29   NGY = 29   NGZ = 29
  (NGX  =120   NGY  =120   NGZ  =120)
  gives a total of  24389 points

 initial charge density was supplied:
 charge density of overlapping atoms calculated
 number of electron      84.0000000 magnetization
 keeping initial charge density in first step

 Maximum index for augmentation-charges        21849 (set IRDMAX)

 First call to EWALD:  gamma=   0.271
 Maximum number of real-space cells 3x 3x 3
 Maximum number of reciprocal cells 3x 3x 3

--------------------------------------- Iteration      1(   1)  ---------------------------------------

 eigenvalue-minimisations  :  3612
 total energy-change (2. order) : 0.6986994E+03  (-0.5135309E+04)
 number of electron      84.0000000 magnetization
 augmentation part       84.0000000 magnetization

 Free energy of the ion-electron system (eV)
  alpha Z        PSCENC =       194.96134799
  Ewald energy   TEWEN  =     -4970.08317265
  -Hartree energ DENC   =     -2519.78558055
  -exchange      EXHF   =         0.00000000
  -V(xc)+E(xc)   XCENC  =       310.91905637
  PAW double counting   =      6444.67582193    -6389.50304870
  entropy T*S    EENTRO =        -0.00100794
  eigenvalues    EBANDS =      -518.55870707
  atomic energy  EATOM  =      8146.07472429
  free energy    TOTEN  =       698.69943367 eV

  energy without entropy =      698.70044160  energy(sigma->0) =      698.69993763

[...]

 eigenvalue-minimisations  :  3930
 total energy-change (2. order) :-0.7929890E+03  (-0.7731391E+03)
 number of electron      84.0000000 magnetization
 augmentation part       84.0000000 magnetization

[...]

 eigenvalue-minimisations  :     0
 total energy-change (2. order) :-0.4963476E-07  ( 0.8401615E-08)
 number of electron      84.0000002 magnetization
 augmentation part        8.6854571 magnetization

[...]

 eigenvalue-minimisations  :     0
 total energy-change (2. order) :-0.1476292E-07  ( 0.4216003E-08)
 number of electron      84.0000002 magnetization
 augmentation part        8.6854549 magnetization

[...]

 eigenvalue-minimisations  :     0
 total energy-change (2. order) : 0.8651659E-07  (-0.1204777E-06)
 number of electron      84.0000002 magnetization
 augmentation part        8.6854551 magnetization

[...]

--------------------------------------- Iteration      1(  67)  ---------------------------------------

 eigenvalue-minimisations  :     0
 total energy-change (2. order) :-0.5093170E-09  (-0.2900561E-09)
 number of electron      84.0000002 magnetization
 augmentation part        8.6854553 magnetization

 Free energy of the ion-electron system (eV)
  alpha Z        PSCENC =       194.96134799
  Ewald energy   TEWEN  =     -4970.08317265
  -Hartree energ DENC   =     -2514.53930076
  -exchange      EXHF   =         0.00000000
  -V(xc)+E(xc)   XCENC  =       325.50384810
  PAW double counting   =     11413.25519874   -11363.26245962
  entropy T*S    EENTRO =        -0.00298574
  eigenvalues    EBANDS =     -1292.73750326
  atomic energy  EATOM  =      8146.07472429
  free energy    TOTEN  =       -60.83030292 eV

  energy without entropy =      -60.82731718  energy(sigma->0) =      -60.82881005

  average scaling for gradient   0.7310

 average (electrostatic) potential at core
  the test charge radii are     0.7672  1.0818  0.9892
  (the norm of the test charge is              1.0000)
       1 -33.1329       2 -33.1325       3 -33.1345       4 -33.1344       5 -84.6110
       6 -82.9260       7 -84.6112       8 -82.9270       9 -89.8024      10 -89.8033
      11 -89.8001      12 -89.8008

 E-fermi :   2.7105     XC(G=0):  -9.1683     alpha+bet : -9.4456

 Fermi energy:         2.7105444346

 k-point     1 :       0.0000    0.0000    0.0000
  band No.  band energies     occupation
      1     -60.6029      2.00000
      2     -60.6026      2.00000
      3     -59.1622      2.00000
      4     -59.1611      2.00000
      5     -33.9416      2.00000
      6     -33.9415      2.00000
      7     -33.9410      2.00000
      8     -33.9409      2.00000
      9     -33.9062      2.00000
     10     -33.8980      2.00000
     11     -33.0548      2.00000
     12     -33.0536      2.00000
     13     -32.7818      2.00000
     14     -32.7722      2.00000
     15     -32.5237      2.00000
     16     -32.5228      2.00000
     17      -7.0459      2.00000
     18      -6.3463      2.00000
     19      -5.7942      2.00000
     20      -5.7936      2.00000
     21      -1.9561      2.00000
     22      -1.3205      2.00000
     23      -1.2237      2.00000
     24      -0.7188      2.00000
     25      -0.7180      2.00000
     26      -0.3305      2.00000
     27      -0.3299      2.00000
     28       0.3670      2.00000
     29       0.9089      2.00000
     30       1.1355      2.00000
     31       1.2357      2.00000
     32       1.3748      2.00000
     33       1.6196      2.00000
     34       1.9428      2.00000
     35       2.0593      2.00000
     36       2.0600      2.00000
     37       2.0665      2.00000
     38       2.0668      2.00000
     39       2.0928      2.00000
     40       2.1441      2.00000
     41       2.4401      2.00000
     42       2.4689      2.00000
     43       2.7683      0.00004
     44       2.7685      0.00004
     45       2.7913      0.00000
     46       2.8109      0.00000
     47       2.9017      0.00000
     48       2.9230      0.00000
     49       2.9233      0.00000
     50       3.7475      0.00000
     51       3.7480      0.00000
     52       4.1099      0.00000
     53       4.2765      0.00000
     54       4.6002      0.00000

[...]

 k-point    30 :       0.5000    0.5000    0.5000
  band No.  band energies     occupation
      1     -60.6029      2.00000
      2     -60.6026      2.00000
      3     -59.1622      2.00000
      4     -59.1611      2.00000
      5     -33.9416      2.00000
      6     -33.9415      2.00000
      7     -33.9410      2.00000
      8     -33.9409      2.00000
      9     -33.9062      2.00000
     10     -33.8980      2.00000
     11     -33.0548      2.00000
     12     -33.0536      2.00000
     13     -32.7818      2.00000
     14     -32.7722      2.00000
     15     -32.5237      2.00000
     16     -32.5228      2.00000
     17      -6.7483      2.00000
     18      -6.2334      2.00000
     19      -6.0049      2.00000
     20      -6.0044      2.00000
     21      -2.0881      2.00000
     22      -1.7713      2.00000
     23      -1.2622      2.00000
     24      -0.8896      2.00000
     25      -0.2923      2.00000
     26      -0.2917      2.00000
     27      -0.0352      2.00000
     28      -0.0342      2.00000
     29       0.2013      2.00000
     30       0.4702      2.00000
     31       0.9126      2.00000
     32       1.5403      2.00000
     33       1.5603      2.00000
     34       1.7751      2.00000
     35       1.9624      2.00000
     36       1.9627      2.00000
     37       2.1011      2.00000
     38       2.2380      2.00000
     39       2.2746      2.00000
     40       2.2748      2.00000
     41       2.6225      2.00000
     42       2.6952      1.72246
     43       2.7544      0.00196
     44       3.2929      0.00000
     45       3.2933      0.00000
     46       3.3687      0.00000
     47       3.4870      0.00000
     48       3.4877      0.00000
     49       3.4877      0.00000
     50       3.8204      0.00000
     51       3.8205      0.00000
     52       3.9409      0.00000
     53       3.9487      0.00000
     54       4.3415      0.00000

 soft charge-density along one line, spin component           1
         0         1         2         3         4         5         6         7         8         9
 total charge-density along one line

------------------------ aborting loop because EDIFF is reached ----------------------------------------

  FREE ENERGIE OF THE ION-ELECTRON SYSTEM (eV)
  free  energy   TOTEN  =       -60.83030292 eV

  energy  without entropy=      -60.82731718  energy(sigma->0) =      -60.82881005

 writing wavefunctions