 vasp.6.2.0 18Jan21 (build Jan 05 2022 15:41:44) complex

 executed on             LinuxIFC date 2025.05.07  19:53:36

 INCAR:
   SYSTEM = routine with relax: pwdword
   ICHARG = 2
   NPAR = 6
   KPAR = 2
   NCORE = 2
   ADDGRID = T
   PREC = Acc
   ENCUT = 600
   METAGGA = R2SCAN
   LASPH = .TRUE.
   LMIXTAU = .FALSE.
   ALGO = A
   EDIFF = 1E-9
   NELM = 100
   NELMIN = 6
   IALGO = 38
   LREAL = F
   NSW = 0
   ISIF = -1
   ISMEAR = 0
   SIGMA = 0.02
   SYMPREC = 1E-4

 POTCAR:    PAW_PBE B 06Sep2000
 POTCAR:    PAW_PBE Mo_sv 02Feb2006
 POTCAR:    PAW_PBE Si 05Jan2001
|           W    W    AA    RRRRR   N    N  II  N    N   GGGG   !!!           |
|           W    W   A  A   R    R  NN   N  II  NN   N  G    G  !!!           |
|           W    W  A    A  R    R  N N  N  II  N N  N  G       !!!           |
|           W WW W  AAAAAA  RRRRR   N  N N  II  N  N N  G  GGG   !            |
|           WW  WW  A    A  R   R   N   NN  II  N   NN  G    G                |
|           W    W  A    A  R    R  N    N  II  N    N   GGGG   !!!           |
|     For optimal performance we recommend to set                             |
|       NCORE = 2 up to number-of-cores-per-socket                            |
|     This setting can greatly improve the performance of VASP for DFT.       |
|     The default, NCORE=1 might be grossly inefficient on modern             |
|     multi-core architectures or massively parallel machines. Do your        |
|     Unfortunately you need to use the default for GW and RPA                |
|     calculations (for HF NCORE is supported but not extensively tested      |
|     yet).                                                                   |

 POTCAR:    PAW_PBE B 06Sep2000
   VRHFIN =B: s2p1

   TITEL  = PAW_PBE B 06Sep2000
   POMASS =   10.811; ZVAL   =    3.000    mass and valenz
   ENMAX  =  318.614; ENMIN  =  238.960 eV

 POTCAR:    PAW_PBE Mo_sv 02Feb2006
   VRHFIN =Mo: 4p5s4d

   TITEL  = PAW_PBE Mo_sv 02Feb2006
   POMASS =   95.940; ZVAL   =   14.000    mass and valenz
   ENMAX  =  242.676; ENMIN  =  182.007 eV

 POTCAR:    PAW_PBE Si 05Jan2001
   VRHFIN =Si: s2p2

   TITEL  = PAW_PBE Si 05Jan2001
   POMASS =   28.085; ZVAL   =    4.000    mass and valenz
   ENMAX  =  245.345; ENMIN  =  184.009 eV

  PAW_PBE B 06Sep2000                   :
  PAW_PBE Mo_sv 02Feb2006               :
  PAW_PBE Si 05Jan2001                  :

 POSCAR: EA200
  positions in direct lattice

 METAGGA = R2SCA    LMAXTAU =  6    LMIXTAU =  F

 ion  position               nearest neighbor table
   1  0.000  0.500  0.500-   7 2.24   8 2.24   6 2.31   4 2.31
   2  0.500  0.000  0.500-   4 2.24   6 2.24   7 2.31   8 2.31
   3  0.250  0.250  0.000-  10 2.28  12 2.28   9 2.28  11 2.28   4 3.29   6 3.29   7 3.29   7 3.29
                             4 3.29   6 3.29   8 3.29   8 3.29
   4  0.746  0.246  0.992-   2 2.24   1 2.31  10 2.37  12 2.37   8 3.22   7 3.22   8 3.22   7 3.22
                             3 3.29   5 3.29   3 3.29   5 3.29
   5  0.750  0.750  0.000-  10 2.28  12 2.28  11 2.28   9 2.28   4 3.29   6 3.29   8 3.29   8 3.29
                             6 3.29   4 3.29   7 3.29   7 3.29
   6  0.254  0.754  0.008-   2 2.24   1 2.31  10 2.37  12 2.37   8 3.22   7 3.22   7 3.22   8 3.22
                             5 3.29   3 3.29   5 3.29   3 3.29
   7  0.246  0.254  0.500-   1 2.24   2 2.31   9 2.37  11 2.37   4 3.22   6 3.22   6 3.22   4 3.22
                             3 3.29   3 3.29   5 3.29   5 3.29
   8  0.754  0.746  0.500-   1 2.24   2 2.31   9 2.37  11 2.37   4 3.22   6 3.22   4 3.22   6 3.22
                             5 3.29   5 3.29   3 3.29   3 3.29
   9  0.500  0.500  0.500-   5 2.28   3 2.28   8 2.37   7 2.37
  10  0.500  0.000  0.000-   3 2.28   5 2.28   4 2.37   6 2.37
  11  0.000  0.000  0.500-   3 2.28   5 2.28   8 2.37   7 2.37
  12  0.000  0.500  0.000-   3 2.28   5 2.28   4 2.37   6 2.37

  LATTYP: Found a body centered tetragonal cell.
 ALAT       =     6.4481299175
 C/A-ratio  =     1.4696721253

  Lattice vectors:

 A1 = (   5.6199083448,   0.0000000000,  -3.4142714851)
 A2 = (  -1.7784181193,   5.3310973351,  -3.4142714851)
 A3 = (   0.0000000000,   0.0000000000,   6.5757600000)

Analysis of symmetry for initial positions (statically):
 Subroutine PRICEL returns:
 Original cell was already a primitive cell.

 Routine SETGRP: Setting up the symmetry group for a
 body centered tetragonal supercell.

 Subroutine GETGRP returns: Found 16 space group operations
 (whereof  8 operations were pure point group operations)
 out of a pool of 16 trial point group operations.

The static configuration has the point symmetry C_4h.
 The point group associated with its full space group is D_4h.

Analysis of symmetry for dynamics (positions and initial velocities):
 Subroutine PRICEL returns:
 Original cell was already a primitive cell.

 Routine SETGRP: Setting up the symmetry group for a
 body centered tetragonal supercell.

 Subroutine GETGRP returns: Found 16 space group operations
 (whereof  8 operations were pure point group operations)
 out of a pool of 16 trial point group operations.

The dynamic configuration has the point symmetry C_4h.
 The point group associated with its full space group is D_4h.

 Subroutine INISYM returns: Found 16 space group operations
 (whereof  8 operations are pure point group operations),
 and found     1 'primitive' translations

                                     Primitive cell

  volume of cell :     197.0116

  direct lattice vectors                    reciprocal lattice vectors
     5.619908345  0.000000000 -3.414271485     0.177938845  0.059359199  0.000000000
    -1.778418119  5.331097335 -3.414271485     0.000000000  0.187578642  0.000000000
     0.000000000  0.000000000  6.575760000     0.092389553  0.128215268  0.152073677

  length of vectors
     6.575760000  6.575760000  6.575760000     0.187578642  0.187578642  0.219320285

  position of ions in fractional coordinates (direct lattice)
     0.000000000  0.500000000  0.500000000
     0.500000000  0.000000000  0.500000000
     0.250000000  0.250000000  0.000000000
     0.746160000  0.246160000  0.992320000
     0.750000000  0.750000000  0.000000000
     0.253840000  0.753840000  0.007680000
     0.246160000  0.253840000  0.500000000
     0.753840000  0.746160000  0.500000000
     0.500000000  0.500000000  0.500000000
     0.500000000  0.000000000  0.000000000
     0.000000000  0.000000000  0.500000000
     0.000000000  0.500000000  0.000000000

  ion indices of the primitive-cell ions
   primitive index   ion index
                 1           1
                 2           2
                 3           3
                 4           4
                 5           5
                 6           6
                 7           7
                 8           8
                 9           9
                10          10
                11          11
                12          12

 KPOINTS: EA

Automatic generation of k-mesh.
 Grid dimensions read from file:
 generate k-points for:    7    7    8

 Generating k-lattice:

  Cartesian coordinates                     Fractional coordinates (reciprocal lattice)
     0.025419835  0.008479886  0.000000000     0.142857143  0.000000000  0.000000000
     0.000000000  0.026796949  0.000000000     0.000000000  0.142857143  0.000000000
     0.011548694  0.016026908  0.019009210     0.000000000  0.000000000  0.125000000

  Length of vectors
     0.026796949  0.026796949  0.027415036

  Shift w.r.t. Gamma in fractional coordinates (k-lattice)
     0.000000000  0.000000000  0.000000000

 WARNING: IBZKPT: internal override: KBLOWUP is changed to .FALSE.
      ... skipping the blow-up phase ...

 Subroutine IBZKPT returns following result:

 Found    116 irreducible k-points:

 Following reciprocal coordinates:
            Coordinates               Weight
  0.000000  0.000000  0.000000      1.000000
  0.142857  0.000000  0.000000      4.000000
  0.285714  0.000000  0.000000      4.000000
  0.428571  0.000000  0.000000      4.000000
  0.142857  0.142857  0.000000      2.000000
  0.285714  0.142857  0.000000      4.000000
  0.428571  0.142857  0.000000      4.000000
 -0.428571  0.142857  0.000000      4.000000
 -0.285714  0.142857  0.000000      4.000000
 -0.142857  0.142857  0.000000      2.000000
  0.285714  0.285714  0.000000      2.000000
  0.428571  0.285714  0.000000      4.000000
 -0.428571  0.285714  0.000000      4.000000
 -0.285714  0.285714  0.000000      2.000000
  0.428571  0.428571  0.000000      2.000000
 -0.428571  0.428571  0.000000      2.000000
  0.000000 -0.000000  0.125000      2.000000
  0.142857  0.000000  0.125000      4.000000
  0.285714  0.000000  0.125000      4.000000
  0.428571  0.000000  0.125000      4.000000
 -0.428571 -0.000000  0.125000      4.000000
 -0.285714 -0.000000  0.125000      4.000000
 -0.142857  0.000000  0.125000      4.000000
  0.142857  0.142857  0.125000      2.000000
  0.285714  0.142857  0.125000      4.000000
  0.428571  0.142857  0.125000      4.000000
 -0.428571  0.142857  0.125000      4.000000
 -0.285714  0.142857  0.125000      4.000000
 -0.142857  0.142857  0.125000      4.000000
  0.285714  0.285714  0.125000      2.000000
  0.428571  0.285714  0.125000      4.000000
 -0.428571  0.285714  0.125000      4.000000
 -0.285714  0.285714  0.125000      4.000000
 -0.142857  0.285714  0.125000      4.000000
  0.428571  0.428571  0.125000      2.000000
 -0.428571  0.428571  0.125000      4.000000
 -0.285714  0.428571  0.125000      4.000000
 -0.142857  0.428571  0.125000      4.000000
 -0.428571 -0.428571  0.125000      2.000000
 -0.285714 -0.428571  0.125000      4.000000
 -0.142857 -0.428571  0.125000      4.000000
 -0.285714 -0.285714  0.125000      2.000000
 -0.142857 -0.285714  0.125000      4.000000
 -0.142857 -0.142857  0.125000      2.000000
  0.000000 -0.000000  0.250000      2.000000
  0.142857 -0.000000  0.250000      4.000000
  0.285714  0.000000  0.250000      4.000000
  0.428571  0.000000  0.250000      4.000000
 -0.428571 -0.000000  0.250000      4.000000
 -0.285714 -0.000000  0.250000      4.000000
 -0.142857  0.000000  0.250000      4.000000
  0.142857  0.142857  0.250000      2.000000
  0.285714  0.142857  0.250000      4.000000
  0.428571  0.142857  0.250000      4.000000
 -0.428571  0.142857  0.250000      4.000000
 -0.285714  0.142857  0.250000      4.000000
 -0.142857  0.142857  0.250000      4.000000
  0.285714  0.285714  0.250000      2.000000
  0.428571  0.285714  0.250000      4.000000
 -0.428571  0.285714  0.250000      4.000000
[...]
  0.142857  0.000000  0.500000      4.000000
  0.285714 -0.000000  0.500000      4.000000
  0.428571  0.000000  0.500000      4.000000
  0.142857  0.142857  0.500000      2.000000
  0.285714  0.142857  0.500000      4.000000
  0.428571  0.142857  0.500000      4.000000
 -0.428571  0.142857  0.500000      4.000000
 -0.285714  0.142857  0.500000      4.000000
 -0.142857  0.142857  0.500000      2.000000
  0.285714  0.285714  0.500000      2.000000
  0.428571  0.285714  0.500000      4.000000
 -0.428571  0.285714  0.500000      4.000000
 -0.285714  0.285714  0.500000      2.000000
[...]
  -0.14285714  0.42857143  0.12500000       0.010
  -0.42857143 -0.42857143  0.12500000       0.005
  -0.28571429 -0.42857143  0.12500000       0.010
  -0.14285714 -0.42857143  0.12500000       0.010
  -0.28571429 -0.28571429  0.12500000       0.005
  -0.14285714 -0.28571429  0.12500000       0.010
  -0.14285714 -0.14285714  0.12500000       0.005
   0.00000000 -0.00000000  0.25000000       0.005
   0.14285714 -0.00000000  0.25000000       0.010
   0.28571429  0.00000000  0.25000000       0.010
   0.42857143  0.00000000  0.25000000       0.010
  -0.42857143 -0.00000000  0.25000000       0.010
  -0.28571429 -0.00000000  0.25000000       0.010
  -0.14285714  0.00000000  0.25000000       0.010
   0.14285714  0.14285714  0.25000000       0.005
   0.28571429  0.14285714  0.25000000       0.010
   0.42857143  0.14285714  0.25000000       0.010
  -0.42857143  0.14285714  0.25000000       0.010
  -0.28571429  0.14285714  0.25000000       0.010
  -0.14285714  0.14285714  0.25000000       0.010
   0.28571429  0.28571429  0.25000000       0.005
   0.42857143  0.28571429  0.25000000       0.010
  -0.42857143  0.28571429  0.25000000       0.010
[...]
   0.14285714  0.00000000  0.50000000       0.010
   0.28571429 -0.00000000  0.50000000       0.010
   0.42857143  0.00000000  0.50000000       0.010
   0.14285714  0.14285714  0.50000000       0.005
   0.28571429  0.14285714  0.50000000       0.010
   0.42857143  0.14285714  0.50000000       0.010
  -0.42857143  0.14285714  0.50000000       0.010
  -0.28571429  0.14285714  0.50000000       0.010
  -0.14285714  0.14285714  0.50000000       0.005
   0.28571429  0.28571429  0.50000000       0.005
   0.42857143  0.28571429  0.50000000       0.010
  -0.42857143  0.28571429  0.50000000       0.010
  -0.28571429  0.28571429  0.50000000       0.005
   0.42857143  0.42857143  0.50000000       0.005
  -0.42857143  0.42857143  0.50000000       0.005

 position of ions in fractional coordinates (direct lattice)
   0.00000000  0.50000000  0.50000000
   0.50000000  0.00000000  0.50000000
   0.25000000  0.25000000  0.00000000
   0.74616000  0.24616000  0.99232000
   0.75000000  0.75000000  0.00000000
   0.25384000  0.75384000  0.00768000
   0.24616000  0.25384000  0.50000000
   0.75384000  0.74616000  0.50000000
   0.50000000  0.50000000  0.50000000
   0.50000000  0.00000000  0.00000000
   0.00000000  0.00000000  0.50000000
   0.00000000  0.50000000  0.00000000

 position of ions in cartesian coordinates  (Angst):
  -0.88920906  2.66554867  1.58074426
   2.80995417  0.00000000  1.58074426
   0.96037256  1.33277433 -1.70713574
   3.75557541  1.31230292  3.13720828
   2.88111767  3.99832300 -5.12140723
   0.08591482  4.01879442 -3.38999125
   0.93196298  1.35324575  1.58074426
   2.90952724  3.97785159 -1.83352723
   1.92074511  2.66554867 -0.12639149
   2.80995417  0.00000000 -1.70713574
   0.00000000  0.00000000  3.28788000
  -0.88920906  2.66554867 -1.70713574

 k-point   1 :   0.0000 0.0000 0.0000  plane waves:    6567
 k-point   2 :   0.1429 0.0000 0.0000  plane waves:    6549
 k-point   3 :   0.2857 0.0000 0.0000  plane waves:    6568
 k-point   4 :   0.4286 0.0000 0.0000  plane waves:    6588
 k-point   5 :   0.1429 0.1429 0.0000  plane waves:    6555
 k-point   6 :   0.2857 0.1429 0.0000  plane waves:    6563
 k-point   7 :   0.4286 0.1429 0.0000  plane waves:    6582
 k-point   8 :  -0.4286 0.1429 0.0000  plane waves:    6569
 k-point   9 :  -0.2857 0.1429 0.0000  plane waves:    6567
 k-point  10 :  -0.1429 0.1429 0.0000  plane waves:    6544
 k-point  11 :   0.2857 0.2857 0.0000  plane waves:    6588
 k-point  12 :   0.4286 0.2857 0.0000  plane waves:    6591
 k-point  13 :  -0.4286 0.2857 0.0000  plane waves:    6572
 k-point  14 :  -0.2857 0.2857 0.0000  plane waves:    6564
 k-point  15 :   0.4286 0.4286 0.0000  plane waves:    6591
 k-point  16 :  -0.4286 0.4286 0.0000  plane waves:    6586
 k-point  17 :   0.0000-0.0000 0.1250  plane waves:    6552
 k-point  18 :   0.1429 0.0000 0.1250  plane waves:    6560
 k-point  19 :   0.2857 0.0000 0.1250  plane waves:    6563
 k-point  20 :   0.4286 0.0000 0.1250  plane waves:    6578
 k-point  21 :  -0.4286-0.0000 0.1250  plane waves:    6571
 k-point  22 :  -0.2857-0.0000 0.1250  plane waves:    6572
 k-point  23 :  -0.1429 0.0000 0.1250  plane waves:    6549
 k-point  24 :   0.1429 0.1429 0.1250  plane waves:    6571
 k-point  25 :   0.2857 0.1429 0.1250  plane waves:    6568
 k-point  26 :   0.4286 0.1429 0.1250  plane waves:    6571
 k-point  27 :  -0.4286 0.1429 0.1250  plane waves:    6565
 k-point  28 :  -0.2857 0.1429 0.1250  plane waves:    6566
 k-point  29 :  -0.1429 0.1429 0.1250  plane waves:    6557
 k-point  30 :   0.2857 0.2857 0.1250  plane waves:    6590
 k-point  31 :   0.4286 0.2857 0.1250  plane waves:    6577
 k-point  32 :  -0.4286 0.2857 0.1250  plane waves:    6572
 k-point  33 :  -0.2857 0.2857 0.1250  plane waves:    6556
 k-point  34 :  -0.1429 0.2857 0.1250  plane waves:    6560
 k-point  35 :   0.4286 0.4286 0.1250  plane waves:    6580
 k-point  36 :  -0.4286 0.4286 0.1250  plane waves:    6602
 k-point  37 :  -0.2857 0.4286 0.1250  plane waves:    6580
 k-point  38 :  -0.1429 0.4286 0.1250  plane waves:    6583
 k-point  39 :  -0.4286-0.4286 0.1250  plane waves:    6584
 k-point  40 :  -0.2857-0.4286 0.1250  plane waves:    6584
 k-point  41 :  -0.1429-0.4286 0.1250  plane waves:    6579
 k-point  42 :  -0.2857-0.2857 0.1250  plane waves:    6571
 k-point  43 :  -0.1429-0.2857 0.1250  plane waves:    6565
 k-point  44 :  -0.1429-0.1429 0.1250  plane waves:    6569
 k-point  45 :   0.0000-0.0000 0.2500  plane waves:    6568
 k-point  46 :   0.1429-0.0000 0.2500  plane waves:    6571
 k-point  47 :   0.2857 0.0000 0.2500  plane waves:    6587
 k-point  48 :   0.4286 0.0000 0.2500  plane waves:    6582
 k-point  49 :  -0.4286-0.0000 0.2500  plane waves:    6573
 k-point  50 :  -0.2857-0.0000 0.2500  plane waves:    6569
 k-point  51 :  -0.1429 0.0000 0.2500  plane waves:    6557
 k-point  52 :   0.1429 0.1429 0.2500  plane waves:    6573
 k-point  53 :   0.2857 0.1429 0.2500  plane waves:    6584
 k-point  54 :   0.4286 0.1429 0.2500  plane waves:    6562
 k-point  55 :  -0.4286 0.1429 0.2500  plane waves:    6566
 k-point  56 :  -0.2857 0.1429 0.2500  plane waves:    6565
 k-point  57 :  -0.1429 0.1429 0.2500  plane waves:    6563
 k-point  58 :   0.2857 0.2857 0.2500  plane waves:    6588
 k-point  59 :   0.4286 0.2857 0.2500  plane waves:    6591
 k-point  60 :  -0.4286 0.2857 0.2500  plane waves:    6586
[...]
 k-point 102 :   0.1429 0.0000 0.5000  plane waves:    6584
 k-point 103 :   0.2857-0.0000 0.5000  plane waves:    6577
 k-point 104 :   0.4286 0.0000 0.5000  plane waves:    6575
 k-point 105 :   0.1429 0.1429 0.5000  plane waves:    6562
 k-point 106 :   0.2857 0.1429 0.5000  plane waves:    6569
 k-point 107 :   0.4286 0.1429 0.5000  plane waves:    6585
 k-point 108 :  -0.4286 0.1429 0.5000  plane waves:    6585
 k-point 109 :  -0.2857 0.1429 0.5000  plane waves:    6593
 k-point 110 :  -0.1429 0.1429 0.5000  plane waves:    6588
 k-point 111 :   0.2857 0.2857 0.5000  plane waves:    6582
 k-point 112 :   0.4286 0.2857 0.5000  plane waves:    6582
 k-point 113 :  -0.4286 0.2857 0.5000  plane waves:    6577
 k-point 114 :  -0.2857 0.2857 0.5000  plane waves:    6586
 k-point 115 :   0.4286 0.4286 0.5000  plane waves:    6567
 k-point 116 :  -0.4286 0.4286 0.5000  plane waves:    6568

 maximum and minimum number of plane-waves per node :      3326     3248

 maximum number of plane-waves:      6602
 maximum index in each direction:
   IXMAX=   13   IYMAX=   13   IZMAX=   13
   IXMIN=  -13   IYMIN=  -13   IZMIN=  -13

 parallel 3D FFT for wavefunctions:
    minimum data exchange during FFTs selected (reduces bandwidth)
 parallel 3D FFT for charge:
    minimum data exchange during FFTs selected (reduces bandwidth)

 Broyden mixing: mesh for mixing (old mesh)
   NGX = 27   NGY = 27   NGZ = 27
  (NGX  =108   NGY  =108   NGZ  =108)
  gives a total of  19683 points

 initial charge density was supplied:
 charge density of overlapping atoms calculated
 number of electron     106.0000000 magnetization
 keeping initial charge density in first step

 Maximum index for augmentation-charges        22552 (set IRDMAX)

 First call to EWALD:  gamma=   0.305
 Maximum number of real-space cells 3x 3x 3
 Maximum number of reciprocal cells 3x 3x 3

--------------------------------------- Iteration      1(   1)  ---------------------------------------

 eigenvalue-minimisations  : 16380
 total energy-change (2. order) : 0.1041960E+04  (-0.7051922E+04)
 number of electron     106.0000000 magnetization
 augmentation part      106.0000000 magnetization

 Free energy of the ion-electron system (eV)
  alpha Z        PSCENC =       467.73157619
  Ewald energy   TEWEN  =     -8803.58592445
  -Hartree energ DENC   =     -2847.81069993
  -exchange      EXHF   =         0.00000000
  -V(xc)+E(xc)   XCENC  =       453.77431693
  PAW double counting   =      9333.50011946    -9270.82734050
  entropy T*S    EENTRO =        -0.00066258
  eigenvalues    EBANDS =       -19.12211901
  atomic energy  EATOM  =     11728.30056431
  free energy    TOTEN  =      1041.95983043 eV

  energy without entropy =     1041.96049301  energy(sigma->0) =     1041.96016172

[...]

 eigenvalue-minimisations  : 17322
 total energy-change (2. order) :-0.1230183E+04  (-0.1204737E+04)
 number of electron     106.0000000 magnetization
 augmentation part      106.0000000 magnetization

[...]

 eigenvalue-minimisations  :     0
 total energy-change (2. order) :-0.5029506E-08  ( 0.1486784E-09)
 number of electron     106.0000001 magnetization
 augmentation part       13.7214661 magnetization

[...]

 eigenvalue-minimisations  :     0
 total energy-change (2. order) :-0.5327820E-08  ( 0.7062128E-10)
 number of electron     106.0000001 magnetization
 augmentation part       13.7214684 magnetization

[...]

 eigenvalue-minimisations  :     0
 total energy-change (2. order) :-0.5506081E-08  (-0.3450761E-10)
 number of electron     106.0000001 magnetization
 augmentation part       13.7214679 magnetization

[...]

--------------------------------------- Iteration      1(  38)  ---------------------------------------

 eigenvalue-minimisations  :     0
 total energy-change (2. order) : 0.4692993E-09  (-0.1294975E-10)
 number of electron     106.0000001 magnetization
 augmentation part       13.7214677 magnetization

 Free energy of the ion-electron system (eV)
  alpha Z        PSCENC =       467.73157619
  Ewald energy   TEWEN  =     -8803.58592445
  -Hartree energ DENC   =     -2713.06484404
  -exchange      EXHF   =         0.00000000
  -V(xc)+E(xc)   XCENC  =       462.88917751
  PAW double counting   =     13158.70314891   -13115.42060501
  entropy T*S    EENTRO =        -0.00279860
  eigenvalues    EBANDS =     -1381.40985446
  atomic energy  EATOM  =     11728.30056431
  free energy    TOTEN  =      -195.85955963 eV

  energy without entropy =     -195.85676103  energy(sigma->0) =     -195.85816033

  average scaling for gradient   0.8262

 average (electrostatic) potential at core
  the test charge radii are     0.7672  1.0818  0.9892
  (the norm of the test charge is              1.0000)
       1 -25.5371       2 -25.5370       3 -77.9068       4 -78.4739       5 -77.9068
       6 -78.4739       7 -78.4739       8 -78.4739       9 -83.7942      10 -83.7945
      11 -83.7942      12 -83.7945

 E-fermi :   8.0686     XC(G=0): -12.2979     alpha+bet :-15.5119

 Fermi energy:         8.0686305598

 k-point     1 :       0.0000    0.0000    0.0000
  band No.  band energies     occupation
      1     -54.4913      2.00000
      2     -54.4738      2.00000
      3     -54.4738      2.00000
      4     -54.4577      2.00000
      5     -54.0301      2.00000
      6     -54.0296      2.00000
      7     -28.0565      2.00000
      8     -28.0564      2.00000
      9     -28.0503      2.00000
     10     -27.9866      2.00000
     11     -27.9843      2.00000
     12     -27.9141      2.00000
     13     -27.9140      2.00000
     14     -27.8578      2.00000
     15     -27.7232      2.00000
     16     -27.7230      2.00000
     17     -27.7215      2.00000
     18     -27.6402      2.00000
     19     -27.6400      2.00000
     20     -27.6079      2.00000
     21     -27.5969      2.00000
     22     -27.5967      2.00000
     23     -27.2676      2.00000
     24     -27.2589      2.00000
     25      -2.6214      2.00000
     26      -0.0924      2.00000
     27       0.7337      2.00000
     28       1.4260      2.00000
     29       1.4261      2.00000
     30       2.1301      2.00000
     31       2.6179      2.00000
     32       2.7707      2.00000
     33       3.0572      2.00000
     34       3.0573      2.00000
     35       4.1858      2.00000
     36       4.4876      2.00000
     37       4.4877      2.00000
     38       4.8971      2.00000
     39       5.3825      2.00000
     40       5.3826      2.00000
     41       5.6517      2.00000
     42       5.7054      2.00000
     43       5.9058      2.00000
     44       5.9059      2.00000
     45       7.1037      2.00000
     46       7.4769      2.00000
     47       7.4769      2.00000
     48       7.6240      2.00000
     49       7.7300      2.00000
     50       8.0948      0.06428
     51       8.0949      0.06279
     52       8.1783      0.00000
     53       8.2026      0.00000
     54       8.2807      0.00000
     55       8.2826      0.00000
     56       9.4692      0.00000
     57       9.7855      0.00000
     58       9.8250      0.00000
     59       9.8251      0.00000
     60       9.8301      0.00000
     61      10.1912      0.00000
     62      10.1913      0.00000
     63      10.7614      0.00000
     64      10.8949      0.00000
     65      11.5348      0.00000
     66      11.8098      0.00000

[...]

 k-point   116 :      -0.4286    0.4286    0.5000
  band No.  band energies     occupation
      1     -54.4898      2.00000
      2     -54.4741      2.00000
      3     -54.4741      2.00000
      4     -54.4578      2.00000
      5     -54.0309      2.00000
      6     -54.0296      2.00000
      7     -28.0396      2.00000
      8     -28.0085      2.00000
      9     -28.0079      2.00000
     10     -27.9967      2.00000
     11     -27.9814      2.00000
     12     -27.9000      2.00000
     13     -27.8996      2.00000
     14     -27.8259      2.00000
     15     -27.7251      2.00000
     16     -27.6831      2.00000
     17     -27.6823      2.00000
     18     -27.6692      2.00000
     19     -27.6680      2.00000
     20     -27.6670      2.00000
     21     -27.6658      2.00000
     22     -27.6084      2.00000
     23     -27.2908      2.00000
     24     -27.2893      2.00000
     25      -1.4289      2.00000
     26      -0.1089      2.00000
     27      -0.0642      2.00000
     28      -0.0055      2.00000
     29       0.9812      2.00000
     30       1.6171      2.00000
     31       3.5468      2.00000
     32       3.6213      2.00000
     33       4.1744      2.00000
     34       4.2252      2.00000
     35       4.6360      2.00000
     36       4.6875      2.00000
     37       4.7612      2.00000
     38       4.7662      2.00000
     39       4.8727      2.00000
     40       5.3902      2.00000
     41       5.8216      2.00000
     42       5.8767      2.00000
     43       5.8795      2.00000
     44       6.1525      2.00000
     45       6.3668      2.00000
     46       6.6353      2.00000
     47       6.6861      2.00000
     48       6.7249      2.00000
     49       6.9132      2.00000
     50       7.6277      2.00000
     51       7.8572      2.00000
     52       7.8830      2.00000
     53       7.9088      2.00000
     54       8.1986      0.00000
     55       8.7188      0.00000
     56       8.7785      0.00000
     57       8.7808      0.00000
     58       9.2442      0.00000
     59       9.8376      0.00000
     60       9.9204      0.00000
     61      10.4573      0.00000
     62      10.4800      0.00000
     63      10.5512      0.00000
     64      10.8840      0.00000
     65      11.3368      0.00000
     66      11.4908      0.00000

 soft charge-density along one line, spin component           1
         0         1         2         3         4         5         6         7         8         9
 total charge-density along one line

------------------------ aborting loop because EDIFF is reached ----------------------------------------

  FREE ENERGIE OF THE ION-ELECTRON SYSTEM (eV)
  free  energy   TOTEN  =      -195.85955963 eV

  energy  without entropy=     -195.85676103  energy(sigma->0) =     -195.85816033

 writing wavefunctions