 vasp.6.2.0 18Jan21 (build Jan 05 2022 15:41:44) complex

 executed on             LinuxIFC date 2025.05.07  21:18:30

 INCAR:
   SYSTEM = routine with relax: pwdword
   ICHARG = 2
   NPAR = 6
   KPAR = 2
   NCORE = 2
   ADDGRID = T
   PREC = Acc
   ENCUT = 600
   METAGGA = R2SCAN
   LASPH = .TRUE.
   LMIXTAU = .FALSE.
   ALGO = A
   EDIFF = 1E-9
   NELM = 100
   NELMIN = 6
   IALGO = 38
   LREAL = F
   NSW = 0
   ISIF = -1
   ISMEAR = 0
   SIGMA = 0.02

 POTCAR:    PAW_PBE B 06Sep2000
 POTCAR:    PAW_PBE Mo_sv 02Feb2006
|           W    W    AA    RRRRR   N    N  II  N    N   GGGG   !!!           |
|           W    W   A  A   R    R  NN   N  II  NN   N  G    G  !!!           |
|           W    W  A    A  R    R  N N  N  II  N N  N  G       !!!           |
|           W WW W  AAAAAA  RRRRR   N  N N  II  N  N N  G  GGG   !            |
|           WW  WW  A    A  R   R   N   NN  II  N   NN  G    G                |
|           W    W  A    A  R    R  N    N  II  N    N   GGGG   !!!           |
|     For optimal performance we recommend to set                             |
|       NCORE = 2 up to number-of-cores-per-socket                            |
|     This setting can greatly improve the performance of VASP for DFT.       |
|     The default, NCORE=1 might be grossly inefficient on modern             |
|     multi-core architectures or massively parallel machines. Do your        |
|     Unfortunately you need to use the default for GW and RPA                |
|     calculations (for HF NCORE is supported but not extensively tested      |
|     yet).                                                                   |

 POTCAR:    PAW_PBE B 06Sep2000
   VRHFIN =B: s2p1

   TITEL  = PAW_PBE B 06Sep2000
   POMASS =   10.811; ZVAL   =    3.000    mass and valenz
   ENMAX  =  318.614; ENMIN  =  238.960 eV

 POTCAR:    PAW_PBE Mo_sv 02Feb2006
   VRHFIN =Mo: 4p5s4d

   TITEL  = PAW_PBE Mo_sv 02Feb2006
   POMASS =   95.940; ZVAL   =   14.000    mass and valenz
   ENMAX  =  242.676; ENMIN  =  182.007 eV

  PAW_PBE B 06Sep2000                   :
  PAW_PBE Mo_sv 02Feb2006               :

 POSCAR: EA246
  positions in direct lattice

 METAGGA = R2SCA    LMAXTAU =  6    LMIXTAU =  F

 ion  position               nearest neighbor table
   1  0.818  0.818  0.818-   2 1.85   2 1.85   2 1.85   5 2.21   6 2.36   6 2.36   6 2.36
   2  0.182  0.182  0.182-   1 1.85   1 1.85   1 1.85   6 2.21   5 2.36   5 2.36   5 2.36
   3  0.332  0.332  0.332-   4 1.74   4 1.74   4 1.74   5 2.33   5 2.33   5 2.33   6 2.37   6 2.37
                             6 2.37
   4  0.668  0.668  0.668-   3 1.74   3 1.74   3 1.74   6 2.33   6 2.33   6 2.33   5 2.37   5 2.37
                             5 2.37
   5  0.924  0.924  0.924-   1 2.21   3 2.33   3 2.33   3 2.33   2 2.36   2 2.36   2 2.36   4 2.37
                             4 2.37   4 2.37   6 3.16
   6  0.076  0.076  0.076-   2 2.21   4 2.33   4 2.33   4 2.33   1 2.36   1 2.36   1 2.36   3 2.37
                             3 2.37   3 2.37   5 3.16

  LATTYP: Found a trigonal (rhomboedric) cell.
 ALAT       =     7.1735586560
 COS(alpha) =     0.9116882471

  Lattice vectors:

 A1 = (   2.9428402000,  -0.0030354400,   6.5421423200)
 A2 = (   1.4012490700,   2.5878200000,   6.5421423200)
 A3 = (  -0.0050999900,  -0.0030354400,   7.1735564900)

Analysis of symmetry for initial positions (statically):
 Subroutine PRICEL returns:
 Original cell was already a primitive cell.

 Routine SETGRP: Setting up the symmetry group for a
 trigonal (rhombohedral) supercell.

 Subroutine GETGRP returns: Found 12 space group operations
 (whereof 12 operations were pure point group operations)
 out of a pool of 12 trial point group operations.

The static configuration has the point symmetry D_3d.

Analysis of symmetry for dynamics (positions and initial velocities):
 Subroutine PRICEL returns:
 Original cell was already a primitive cell.

 Routine SETGRP: Setting up the symmetry group for a
 trigonal (rhombohedral) supercell.

 Subroutine GETGRP returns: Found 12 space group operations
 (whereof 12 operations were pure point group operations)
 out of a pool of 12 trial point group operations.

The dynamic configuration has the point symmetry D_3d.

 Subroutine INISYM returns: Found 12 space group operations
 (whereof 12 operations are pure point group operations),
 and found     1 'primitive' translations

                                     Primitive cell

  volume of cell :      54.7781

  direct lattice vectors                    reciprocal lattice vectors
     2.942840200 -0.003035440  6.542142320     0.339254882 -0.184112041  0.000163285
     1.401249070  2.587820000  6.542142320     0.000034989  0.385993724  0.000163355
    -0.005099990 -0.003035440  7.173556490    -0.309425684 -0.184112121  0.139102978

  length of vectors
     7.173558656  7.173558214  7.173558945     0.385993711  0.385993760  0.385993737

  position of ions in fractional coordinates (direct lattice)
     0.818330970  0.818330970  0.818330970
     0.181669030  0.181669030  0.181669030
     0.332102850  0.332102850  0.332102850
     0.667897150  0.667897150  0.667897150
     0.924347140  0.924347140  0.924347140
     0.075652860  0.075652860  0.075652860

  ion indices of the primitive-cell ions
   primitive index   ion index
                 1           1
                 2           2
                 3           3
                 4           4
                 5           5
                 6           6

 KPOINTS: EA

Automatic generation of k-mesh.
 Grid dimensions read from file:
 generate k-points for:   13   13   13

 Generating k-lattice:

  Cartesian coordinates                     Fractional coordinates (reciprocal lattice)
     0.026096529 -0.014162465  0.000012560     0.076923077 -0.000000000  0.000000000
     0.000002691  0.029691825  0.000012566     0.000000000  0.076923077 -0.000000000
    -0.023801976 -0.014162471  0.010700229     0.000000000  0.000000000  0.076923077

  Length of vectors
     0.029691824  0.029691828  0.029691826

  Shift w.r.t. Gamma in fractional coordinates (k-lattice)
     0.000000000  0.000000000  0.000000000

 Subroutine IBZKPT returns following result:

 Found    231 irreducible k-points:

 Following reciprocal coordinates:
            Coordinates               Weight
  0.000000  0.000000  0.000000      1.000000
  0.076923  0.000000 -0.000000      6.000000
  0.153846  0.000000  0.000000      6.000000
  0.230769  0.000000 -0.000000      6.000000
  0.307692  0.000000  0.000000      6.000000
  0.384615  0.000000  0.000000      6.000000
  0.461538  0.000000 -0.000000      6.000000
  0.076923  0.076923  0.000000      6.000000
  0.153846  0.076923  0.000000     12.000000
  0.230769  0.076923  0.000000     12.000000
  0.307692  0.076923  0.000000     12.000000
  0.384615  0.076923  0.000000     12.000000
  0.461538  0.076923  0.000000     12.000000
 -0.461538  0.076923  0.000000     12.000000
 -0.384615  0.076923  0.000000     12.000000
 -0.307692  0.076923  0.000000     12.000000
 -0.230769  0.076923  0.000000     12.000000
 -0.153846  0.076923 -0.000000     12.000000
 -0.076923  0.076923  0.000000      6.000000
  0.153846  0.153846  0.000000      6.000000
  0.230769  0.153846  0.000000     12.000000
  0.307692  0.153846  0.000000     12.000000
  0.384615  0.153846  0.000000     12.000000
  0.461538  0.153846  0.000000     12.000000
 -0.461538  0.153846  0.000000     12.000000
 -0.384615  0.153846  0.000000     12.000000
 -0.307692  0.153846 -0.000000     12.000000
 -0.230769  0.153846 -0.000000     12.000000
 -0.153846  0.153846 -0.000000      6.000000
  0.230769  0.230769  0.000000      6.000000
  0.307692  0.230769  0.000000     12.000000
  0.384615  0.230769  0.000000     12.000000
  0.461538  0.230769  0.000000     12.000000
 -0.461538  0.230769  0.000000     12.000000
 -0.384615  0.230769  0.000000     12.000000
 -0.307692  0.230769 -0.000000     12.000000
 -0.230769  0.230769 -0.000000      6.000000
  0.307692  0.307692  0.000000      6.000000
  0.384615  0.307692 -0.000000     12.000000
  0.461538  0.307692 -0.000000     12.000000
 -0.461538  0.307692  0.000000     12.000000
 -0.384615  0.307692 -0.000000     12.000000
 -0.307692  0.307692 -0.000000      6.000000
  0.384615  0.384615  0.000000      6.000000
  0.461538  0.384615  0.000000     12.000000
 -0.461538  0.384615  0.000000     12.000000
 -0.384615  0.384615 -0.000000      6.000000
  0.461538  0.461538  0.000000      6.000000
 -0.461538  0.461538  0.000000      6.000000
  0.076923  0.076923  0.076923      2.000000
  0.153846  0.076923  0.076923      6.000000
  0.230769  0.076923  0.076923      6.000000
  0.307692  0.076923  0.076923      6.000000
  0.384615  0.076923  0.076923      6.000000
  0.461538  0.076923  0.076923      6.000000
 -0.461538  0.076923  0.076923      6.000000
 -0.384615  0.076923  0.076923      6.000000
 -0.307692  0.076923  0.076923      6.000000
 -0.230769  0.076923  0.076923      6.000000
 -0.153846  0.076923  0.076923      6.000000
[...]
 -0.384615  0.461538  0.307692     12.000000
 -0.307692  0.461538  0.307692     12.000000
 -0.461538 -0.461538  0.307692      6.000000
 -0.384615 -0.461538  0.307692     12.000000
 -0.384615 -0.384615  0.307692      6.000000
  0.384615  0.384615  0.384615      2.000000
  0.461538  0.384615  0.384615      6.000000
 -0.461538  0.384615  0.384615      6.000000
 -0.384615  0.384615  0.384615      6.000000
  0.461538  0.461538  0.384615      6.000000
 -0.461538  0.461538  0.384615     12.000000
 -0.384615  0.461538  0.384615     12.000000
 -0.461538 -0.461538  0.384615      6.000000
  0.461538  0.461538  0.461538      2.000000
 -0.461538  0.461538  0.461538      6.000000

 Following cartesian coordinates:
            Coordinates               Weight
  0.000000  0.000000  0.000000      1.000000
  0.026097 -0.014162  0.000013      6.000000
  0.052193 -0.028325  0.000025      6.000000
  0.078290 -0.042487  0.000038      6.000000
  0.104386 -0.056650  0.000050      6.000000
  0.130483 -0.070812  0.000063      6.000000
  0.156579 -0.084975  0.000075      6.000000
  0.026099  0.015529  0.000025      6.000000
  0.052196  0.001367  0.000038     12.000000
  0.078292 -0.012796  0.000050     12.000000
  0.104389 -0.026958  0.000063     12.000000
  0.130485 -0.041120  0.000075     12.000000
  0.156582 -0.055283  0.000088     12.000000
 -0.156576  0.114667 -0.000063     12.000000
 -0.130480  0.100504 -0.000050     12.000000
 -0.104383  0.086342 -0.000038     12.000000
 -0.078287  0.072179 -0.000025     12.000000
 -0.052190  0.058017 -0.000013     12.000000
 -0.026094  0.043854  0.000000      6.000000
  0.052198  0.031059  0.000050      6.000000
  0.078295  0.016896  0.000063     12.000000
  0.104392  0.002734  0.000075     12.000000
  0.130488 -0.011429  0.000088     12.000000
  0.156585 -0.025591  0.000100     12.000000
 -0.156574  0.144358 -0.000050     12.000000
 -0.130477  0.130196 -0.000038     12.000000
 -0.104381  0.116034 -0.000025     12.000000
 -0.078284  0.101871 -0.000013     12.000000
 -0.052188  0.087709  0.000000      6.000000
  0.078298  0.046588  0.000075      6.000000
  0.104394  0.032426  0.000088     12.000000
[...]
   0.15659263  0.06348434  0.00013819       0.005
  -0.15656572  0.23343391 -0.00001253       0.005
  -0.13046919  0.21927145  0.00000003       0.003
   0.15659532  0.09317616  0.00015076       0.003
  -0.15656303  0.26312574  0.00000003       0.003
   0.00229725  0.00136689  0.01072536       0.001
   0.02839377 -0.01279558  0.01073792       0.003
   0.05449030 -0.02695804  0.01075048       0.003
   0.08058683 -0.04112050  0.01076304       0.003
   0.10668336 -0.05528297  0.01077560       0.003
   0.13277989 -0.06944543  0.01078816       0.003
  -0.18037846  0.10050414  0.01063743       0.003
  -0.15428193  0.08634168  0.01064999       0.003
  -0.12818540  0.07217921  0.01066255       0.003
  -0.10208887  0.05801675  0.01067511       0.003
  -0.07599234  0.04385428  0.01068767       0.003
[...]
  -0.22567440  0.19231339  0.04281351       0.005
  -0.19957787  0.17815092  0.04282607       0.005
  -0.25180323 -0.14982604  0.04265016       0.003
  -0.22570670 -0.16398851  0.04266272       0.005
  -0.22570401 -0.13429668  0.04267529       0.003
   0.01148623  0.00683445  0.05362678       0.001
   0.03758276 -0.00732802  0.05363934       0.003
  -0.27557560  0.16262156  0.05348861       0.003
  -0.24947907  0.14845909  0.05350117       0.003
   0.03758545  0.02236381  0.05365190       0.003
  -0.27557291  0.19231338  0.05350118       0.005
  -0.24947638  0.17815092  0.05351374       0.005
  -0.27560520 -0.16398852  0.05335039       0.003
   0.01378347  0.00820134  0.06435213       0.001
  -0.29937488  0.17815091  0.06420141       0.003

 k-points in reciprocal lattice and weights: EA
   0.00000000  0.00000000  0.00000000       0.000
   0.07692308  0.00000000 -0.00000000       0.003
   0.15384615  0.00000000  0.00000000       0.003
   0.23076923  0.00000000 -0.00000000       0.003
   0.30769231  0.00000000  0.00000000       0.003
   0.38461538  0.00000000  0.00000000       0.003
   0.46153846  0.00000000 -0.00000000       0.003
   0.07692308  0.07692308  0.00000000       0.003
   0.15384615  0.07692308  0.00000000       0.005
   0.23076923  0.07692308  0.00000000       0.005
   0.30769231  0.07692308  0.00000000       0.005
   0.38461538  0.07692308  0.00000000       0.005
   0.46153846  0.07692308  0.00000000       0.005
  -0.46153846  0.07692308  0.00000000       0.005
  -0.38461538  0.07692308  0.00000000       0.005
  -0.30769231  0.07692308  0.00000000       0.005
  -0.23076923  0.07692308  0.00000000       0.005
  -0.15384615  0.07692308 -0.00000000       0.005
  -0.07692308  0.07692308  0.00000000       0.003
   0.15384615  0.15384615  0.00000000       0.003
   0.23076923  0.15384615  0.00000000       0.005
   0.30769231  0.15384615  0.00000000       0.005
   0.38461538  0.15384615  0.00000000       0.005
   0.46153846  0.15384615  0.00000000       0.005
  -0.46153846  0.15384615  0.00000000       0.005
  -0.38461538  0.15384615  0.00000000       0.005
  -0.30769231  0.15384615 -0.00000000       0.005
  -0.23076923  0.15384615 -0.00000000       0.005
  -0.15384615  0.15384615 -0.00000000       0.003
   0.23076923  0.23076923  0.00000000       0.003
   0.30769231  0.23076923  0.00000000       0.005
   0.38461538  0.23076923  0.00000000       0.005
   0.46153846  0.23076923  0.00000000       0.005
  -0.46153846  0.23076923  0.00000000       0.005
  -0.38461538  0.23076923  0.00000000       0.005
  -0.30769231  0.23076923 -0.00000000       0.005
  -0.23076923  0.23076923 -0.00000000       0.003
   0.30769231  0.30769231  0.00000000       0.003
   0.38461538  0.30769231 -0.00000000       0.005
   0.46153846  0.30769231 -0.00000000       0.005
  -0.46153846  0.30769231  0.00000000       0.005
  -0.38461538  0.30769231 -0.00000000       0.005
  -0.30769231  0.30769231 -0.00000000       0.003
   0.38461538  0.38461538  0.00000000       0.003
   0.46153846  0.38461538  0.00000000       0.005
  -0.46153846  0.38461538  0.00000000       0.005
  -0.38461538  0.38461538 -0.00000000       0.003
   0.46153846  0.46153846  0.00000000       0.003
  -0.46153846  0.46153846  0.00000000       0.003
   0.07692308  0.07692308  0.07692308       0.001
   0.15384615  0.07692308  0.07692308       0.003
   0.23076923  0.07692308  0.07692308       0.003
   0.30769231  0.07692308  0.07692308       0.003
   0.38461538  0.07692308  0.07692308       0.003
   0.46153846  0.07692308  0.07692308       0.003
  -0.46153846  0.07692308  0.07692308       0.003
  -0.38461538  0.07692308  0.07692308       0.003
  -0.30769231  0.07692308  0.07692308       0.003
  -0.23076923  0.07692308  0.07692308       0.003
  -0.15384615  0.07692308  0.07692308       0.003
[...]
  -0.38461538  0.46153846  0.30769231       0.005
  -0.30769231  0.46153846  0.30769231       0.005
  -0.46153846 -0.46153846  0.30769231       0.003
  -0.38461538 -0.46153846  0.30769231       0.005
  -0.38461538 -0.38461538  0.30769231       0.003
   0.38461538  0.38461538  0.38461538       0.001
   0.46153846  0.38461538  0.38461538       0.003
  -0.46153846  0.38461538  0.38461538       0.003
  -0.38461538  0.38461538  0.38461538       0.003
   0.46153846  0.46153846  0.38461538       0.003
  -0.46153846  0.46153846  0.38461538       0.005
  -0.38461538  0.46153846  0.38461538       0.005
  -0.46153846 -0.46153846  0.38461538       0.003
   0.46153846  0.46153846  0.46153846       0.001
  -0.46153846  0.46153846  0.46153846       0.003

 position of ions in fractional coordinates (direct lattice)
   0.81833097  0.81833097  0.81833097
   0.18166903  0.18166903  0.18166903
   0.33210285  0.33210285  0.33210285
   0.66789715  0.66789715  0.66789715
   0.92434714  0.92434714  0.92434714
   0.07565286  0.07565286  0.07565286

 position of ions in cartesian coordinates  (Angst):
   3.55072931  2.11272526 16.57761878
   0.78825997  0.46902386  3.68022235
   1.44099071  0.85740624  6.72768677
   2.89799857  1.72434288 13.53015436
   4.01073233  2.38643242 18.72527751
   0.32825695  0.19531670  1.53256362

 k-point   1 :   0.0000 0.0000 0.0000  plane waves:    1809
 k-point   2 :   0.0769 0.0000-0.0000  plane waves:    1812
 k-point   3 :   0.1538 0.0000 0.0000  plane waves:    1826
 k-point   4 :   0.2308 0.0000-0.0000  plane waves:    1826
 k-point   5 :   0.3077 0.0000 0.0000  plane waves:    1818
 k-point   6 :   0.3846 0.0000 0.0000  plane waves:    1831
 k-point   7 :   0.4615 0.0000-0.0000  plane waves:    1826
 k-point   8 :   0.0769 0.0769 0.0000  plane waves:    1808
 k-point   9 :   0.1538 0.0769 0.0000  plane waves:    1824
 k-point  10 :   0.2308 0.0769 0.0000  plane waves:    1826
 k-point  11 :   0.3077 0.0769 0.0000  plane waves:    1826
 k-point  12 :   0.3846 0.0769 0.0000  plane waves:    1817
 k-point  13 :   0.4615 0.0769 0.0000  plane waves:    1829
 k-point  14 :  -0.4615 0.0769 0.0000  plane waves:    1828
 k-point  15 :  -0.3846 0.0769 0.0000  plane waves:    1837
 k-point  16 :  -0.3077 0.0769 0.0000  plane waves:    1823
 k-point  17 :  -0.2308 0.0769 0.0000  plane waves:    1821
 k-point  18 :  -0.1538 0.0769-0.0000  plane waves:    1822
 k-point  19 :  -0.0769 0.0769 0.0000  plane waves:    1826
 k-point  20 :   0.1538 0.1538 0.0000  plane waves:    1820
 k-point  21 :   0.2308 0.1538 0.0000  plane waves:    1822
 k-point  22 :   0.3077 0.1538 0.0000  plane waves:    1825
 k-point  23 :   0.3846 0.1538 0.0000  plane waves:    1823
 k-point  24 :   0.4615 0.1538 0.0000  plane waves:    1824
 k-point  25 :  -0.4615 0.1538 0.0000  plane waves:    1840
 k-point  26 :  -0.3846 0.1538 0.0000  plane waves:    1834
 k-point  27 :  -0.3077 0.1538-0.0000  plane waves:    1836
 k-point  28 :  -0.2308 0.1538-0.0000  plane waves:    1825
 k-point  29 :  -0.1538 0.1538-0.0000  plane waves:    1816
 k-point  30 :   0.2308 0.2308 0.0000  plane waves:    1823
 k-point  31 :   0.3077 0.2308 0.0000  plane waves:    1828
 k-point  32 :   0.3846 0.2308 0.0000  plane waves:    1828
 k-point  33 :   0.4615 0.2308 0.0000  plane waves:    1842
 k-point  34 :  -0.4615 0.2308 0.0000  plane waves:    1842
 k-point  35 :  -0.3846 0.2308 0.0000  plane waves:    1847
 k-point  36 :  -0.3077 0.2308-0.0000  plane waves:    1837
 k-point  37 :  -0.2308 0.2308-0.0000  plane waves:    1832
 k-point  38 :   0.3077 0.3077 0.0000  plane waves:    1819
 k-point  39 :   0.3846 0.3077-0.0000  plane waves:    1827
 k-point  40 :   0.4615 0.3077-0.0000  plane waves:    1837
 k-point  41 :  -0.4615 0.3077 0.0000  plane waves:    1851
 k-point  42 :  -0.3846 0.3077-0.0000  plane waves:    1845
 k-point  43 :  -0.3077 0.3077-0.0000  plane waves:    1840
 k-point  44 :   0.3846 0.3846 0.0000  plane waves:    1817
 k-point  45 :   0.4615 0.3846 0.0000  plane waves:    1832
 k-point  46 :  -0.4615 0.3846 0.0000  plane waves:    1843
 k-point  47 :  -0.3846 0.3846-0.0000  plane waves:    1850
 k-point  48 :   0.4615 0.4615 0.0000  plane waves:    1829
 k-point  49 :  -0.4615 0.4615 0.0000  plane waves:    1834
 k-point  50 :   0.0769 0.0769 0.0769  plane waves:    1818
 k-point  51 :   0.1538 0.0769 0.0769  plane waves:    1816
 k-point  52 :   0.2308 0.0769 0.0769  plane waves:    1812
 k-point  53 :   0.3077 0.0769 0.0769  plane waves:    1829
 k-point  54 :   0.3846 0.0769 0.0769  plane waves:    1824
 k-point  55 :   0.4615 0.0769 0.0769  plane waves:    1827
 k-point  56 :  -0.4615 0.0769 0.0769  plane waves:    1824
 k-point  57 :  -0.3846 0.0769 0.0769  plane waves:    1823
 k-point  58 :  -0.3077 0.0769 0.0769  plane waves:    1830
 k-point  59 :  -0.2308 0.0769 0.0769  plane waves:    1819
 k-point  60 :  -0.1538 0.0769 0.0769  plane waves:    1813
[...]
 k-point 217 :  -0.3846 0.4615 0.3077  plane waves:    1818
 k-point 218 :  -0.3077 0.4615 0.3077  plane waves:    1824
 k-point 219 :  -0.4615-0.4615 0.3077  plane waves:    1817
 k-point 220 :  -0.3846-0.4615 0.3077  plane waves:    1824
 k-point 221 :  -0.3846-0.3846 0.3077  plane waves:    1826
 k-point 222 :   0.3846 0.3846 0.3846  plane waves:    1795
 k-point 223 :   0.4615 0.3846 0.3846  plane waves:    1794
 k-point 224 :  -0.4615 0.3846 0.3846  plane waves:    1808
 k-point 225 :  -0.3846 0.3846 0.3846  plane waves:    1817
 k-point 226 :   0.4615 0.4615 0.3846  plane waves:    1792
 k-point 227 :  -0.4615 0.4615 0.3846  plane waves:    1809
 k-point 228 :  -0.3846 0.4615 0.3846  plane waves:    1821
 k-point 229 :  -0.4615-0.4615 0.3846  plane waves:    1803
 k-point 230 :   0.4615 0.4615 0.4615  plane waves:    1795
 k-point 231 :  -0.4615 0.4615 0.4615  plane waves:    1798

 maximum and minimum number of plane-waves per node :       936      893

 maximum number of plane-waves:      1853
 maximum index in each direction:
   IXMAX=   14   IYMAX=   14   IZMAX=   14
   IXMIN=  -14   IYMIN=  -14   IZMIN=  -14

 parallel 3D FFT for wavefunctions:
    minimum data exchange during FFTs selected (reduces bandwidth)
 parallel 3D FFT for charge:
    minimum data exchange during FFTs selected (reduces bandwidth)

 Broyden mixing: mesh for mixing (old mesh)
   NGX = 29   NGY = 29   NGZ = 29
  (NGX  =120   NGY  =120   NGZ  =120)
  gives a total of  24389 points

 initial charge density was supplied:
 charge density of overlapping atoms calculated
 number of electron      40.0000000 magnetization
 keeping initial charge density in first step

 Maximum index for augmentation-charges       111468 (set IRDMAX)

 First call to EWALD:  gamma=   0.467
 Maximum number of real-space cells 4x 4x 4
 Maximum number of reciprocal cells 5x 5x 5

--------------------------------------- Iteration      1(   1)  ---------------------------------------

 eigenvalue-minimisations  : 11088
 total energy-change (2. order) : 0.3235722E+03  (-0.2747946E+04)
 number of electron      40.0000000 magnetization
 augmentation part       40.0000000 magnetization

 Free energy of the ion-electron system (eV)
  alpha Z        PSCENC =       259.22285155
  Ewald energy   TEWEN  =     -3447.41154564
  -Hartree energ DENC   =      -775.08619927
  -exchange      EXHF   =         0.00000000
  -V(xc)+E(xc)   XCENC  =       189.88145762
  PAW double counting   =      3139.30912006    -3134.42653113
  entropy T*S    EENTRO =        -0.00020681
  eigenvalues    EBANDS =        82.83976076
  atomic energy  EATOM  =      4009.24344455
  free energy    TOTEN  =       323.57215169 eV

  energy without entropy =      323.57235849  energy(sigma->0) =      323.57225509

[...]

 eigenvalue-minimisations  : 13620
 total energy-change (2. order) :-0.4160098E+03  (-0.4141825E+03)
 number of electron      40.0000000 magnetization
 augmentation part       40.0000000 magnetization

[...]

 eigenvalue-minimisations  :     0
 total energy-change (2. order) : 0.3508745E+02  (-0.1238282E+02)
 number of electron      40.0000000 magnetization
 augmentation part        5.0385849 magnetization

[...]

 eigenvalue-minimisations  :     0
 total energy-change (2. order) :-0.1349144E-07  ( 0.5646822E-07)
 number of electron      40.0000000 magnetization
 augmentation part        4.8581898 magnetization

[...]

 eigenvalue-minimisations  :     0
 total energy-change (2. order) :-0.1317221E-07  ( 0.2721882E-08)
 number of electron      40.0000000 magnetization
 augmentation part        4.8581920 magnetization

[...]

--------------------------------------- Iteration      1(  34)  ---------------------------------------

 eigenvalue-minimisations  :     0
 total energy-change (2. order) :-0.5643415E-09  (-0.2470226E-09)
 number of electron      40.0000000 magnetization
 augmentation part        4.8581910 magnetization

 Free energy of the ion-electron system (eV)
  alpha Z        PSCENC =       259.22285155
  Ewald energy   TEWEN  =     -3447.41154564
  -Hartree energ DENC   =      -711.61461278
  -exchange      EXHF   =         0.00000000
  -V(xc)+E(xc)   XCENC  =       193.25357799
  PAW double counting   =      4803.35272574    -4805.96663726
  entropy T*S    EENTRO =        -0.00041434
  eigenvalues    EBANDS =      -384.27600127
  atomic energy  EATOM  =      4009.24344455
  free energy    TOTEN  =       -84.19661147 eV

  energy without entropy =      -84.19619713  energy(sigma->0) =      -84.19640430

  average scaling for gradient   1.0932

 average (electrostatic) potential at core
  the test charge radii are     0.7672  1.0818
  (the norm of the test charge is              1.0000)
       1 -22.4345       2 -22.4345       3 -23.4196       4 -23.4196       5 -76.0146
       6 -76.0146

 E-fermi :  11.2075     XC(G=0): -14.2133     alpha+bet :-19.5123

 Fermi energy:        11.2074776182

 k-point     1 :       0.0000    0.0000    0.0000
  band No.  band energies     occupation
      1     -52.1511      2.00000
      2     -52.1369      2.00000
      3     -25.8458      2.00000
      4     -25.6252      2.00000
      5     -25.2072      2.00000
      6     -25.2072      2.00000
      7     -25.1915      2.00000
      8     -25.1915      2.00000
      9      -3.7961      2.00000
     10      -1.0257      2.00000
     11       2.3113      2.00000
     12       6.0393      2.00000
     13       6.9948      2.00000
     14       6.9948      2.00000
     15       7.6000      2.00000
     16       9.4442      2.00000
     17       9.4442      2.00000
     18       9.7426      2.00000
     19       9.7426      2.00000
     20       9.7923      2.00000
     21       9.7923      2.00000
     22      10.2479      2.00000
     23      12.7517      0.00000
     24      12.7517      0.00000

[...]

 k-point   231 :      -0.4615    0.4615    0.4615
  band No.  band energies     occupation
      1     -52.1459      2.00000
      2     -52.1329      2.00000
      3     -25.8143      2.00000
      4     -25.6435      2.00000
      5     -25.2479      2.00000
      6     -25.2284      2.00000
      7     -25.2177      2.00000
      8     -25.1986      2.00000
      9      -3.4035      2.00000
     10      -1.6150      2.00000
     11       3.5098      2.00000
     12       5.2117      2.00000
     13       6.5874      2.00000
     14       6.9018      2.00000
     15       7.6664      2.00000
     16       8.5199      2.00000
     17       8.6225      2.00000
     18       9.5063      2.00000
     19       9.6883      2.00000
     20       9.8055      2.00000
     21      11.5199      0.00000
     22      12.1907      0.00000
     23      12.8984      0.00000
     24      12.9910      0.00000

 soft charge-density along one line, spin component           1
         0         1         2         3         4         5         6         7         8         9
 total charge-density along one line

------------------------ aborting loop because EDIFF is reached ----------------------------------------

  FREE ENERGIE OF THE ION-ELECTRON SYSTEM (eV)
  free  energy   TOTEN  =       -84.19661147 eV

  energy  without entropy=      -84.19619713  energy(sigma->0) =      -84.19640430

 writing wavefunctions