 vasp.6.2.0 18Jan21 (build Jan 05 2022 15:41:44) complex

 executed on             LinuxIFC date 2025.05.07  15:52:11

 INCAR:
   SYSTEM = routine with relax: pwdword
   ICHARG = 2
   NPAR = 6
   KPAR = 2
   NCORE = 2
   ADDGRID = T
   PREC = Acc
   ENCUT = 600
   METAGGA = R2SCAN
   LASPH = .TRUE.
   LMIXTAU = .FALSE.
   ALGO = A
   EDIFF = 1E-9
   NELM = 100
   NELMIN = 6
   IALGO = 38
   LREAL = F
   NSW = 0
   ISIF = -1
   ISMEAR = 0
   SIGMA = 0.02

 POTCAR:    PAW_PBE B 06Sep2000
 POTCAR:    PAW_PBE Mo_sv 02Feb2006
 POTCAR:    PAW_PBE Si 05Jan2001
|           W    W    AA    RRRRR   N    N  II  N    N   GGGG   !!!           |
|           W    W   A  A   R    R  NN   N  II  NN   N  G    G  !!!           |
|           W    W  A    A  R    R  N N  N  II  N N  N  G       !!!           |
|           W WW W  AAAAAA  RRRRR   N  N N  II  N  N N  G  GGG   !            |
|           WW  WW  A    A  R   R   N   NN  II  N   NN  G    G                |
|           W    W  A    A  R    R  N    N  II  N    N   GGGG   !!!           |
|     For optimal performance we recommend to set                             |
|       NCORE = 2 up to number-of-cores-per-socket                            |
|     This setting can greatly improve the performance of VASP for DFT.       |
|     The default, NCORE=1 might be grossly inefficient on modern             |
|     multi-core architectures or massively parallel machines. Do your        |
|     Unfortunately you need to use the default for GW and RPA                |
|     calculations (for HF NCORE is supported but not extensively tested      |
|     yet).                                                                   |

 POTCAR:    PAW_PBE B 06Sep2000
   VRHFIN =B: s2p1

   TITEL  = PAW_PBE B 06Sep2000
   POMASS =   10.811; ZVAL   =    3.000    mass and valenz
   ENMAX  =  318.614; ENMIN  =  238.960 eV

 POTCAR:    PAW_PBE Mo_sv 02Feb2006
   VRHFIN =Mo: 4p5s4d

   TITEL  = PAW_PBE Mo_sv 02Feb2006
   POMASS =   95.940; ZVAL   =   14.000    mass and valenz
   ENMAX  =  242.676; ENMIN  =  182.007 eV

 POTCAR:    PAW_PBE Si 05Jan2001
   VRHFIN =Si: s2p2

   TITEL  = PAW_PBE Si 05Jan2001
   POMASS =   28.085; ZVAL   =    4.000    mass and valenz
   ENMAX  =  245.345; ENMIN  =  184.009 eV

  PAW_PBE B 06Sep2000                   :
  PAW_PBE Mo_sv 02Feb2006               :
  PAW_PBE Si 05Jan2001                  :

 POSCAR: EA64
  positions in direct lattice

 METAGGA = R2SCA    LMAXTAU =  6    LMIXTAU =  F

 ion  position               nearest neighbor table
   1  0.000  0.000  0.000-   3 2.10   5 2.10  10 2.17   9 2.17   7 2.17   8 2.17
   2  0.500  0.500  0.000-   3 2.10   5 2.10   9 2.17  10 2.17   7 2.17   8 2.17
   3  0.250  0.250  0.000-   1 2.10   2 2.10   7 3.02   8 3.02   9 3.02   9 3.02  10 3.02  10 3.02
                             7 3.02   8 3.02
   4  0.000  0.500  0.500-   7 2.10   8 2.10   9 2.24  10 2.24
   5  0.750  0.750  0.000-   1 2.10   2 2.10   8 3.02   7 3.02  10 3.02  10 3.02   9 3.02   9 3.02
                             8 3.02   7 3.02
   6  0.500  0.000  0.500-   9 2.10  10 2.10   8 2.24   7 2.24
   7  0.242  0.742  0.984-   4 2.10   1 2.17   2 2.17   6 2.24   3 3.02   5 3.02   5 3.02   3 3.02
                            10 3.07   9 3.07  10 3.07   9 3.07
   8  0.758  0.258  0.016-   4 2.10   1 2.17   2 2.17   6 2.24   5 3.02   3 3.02   5 3.02   3 3.02
                             9 3.07  10 3.07  10 3.07   9 3.07
   9  0.742  0.758  0.500-   6 2.10   1 2.17   2 2.17   4 2.24   3 3.02   3 3.02   5 3.02   5 3.02
                             8 3.07   7 3.07   7 3.07   8 3.07
  10  0.258  0.242  0.500-   6 2.10   2 2.17   1 2.17   4 2.24   5 3.02   5 3.02   3 3.02   3 3.02
                             7 3.07   8 3.07   8 3.07   7 3.07

  LATTYP: Found a face centered orthorhombic cell.
 ALAT       =     8.4009185940
 B/A-ratio  =     1.0330020427
 C/A-ratio  =     1.0330107108

  Lattice vectors:

 A1 = (   5.2854657195,   0.0000000000,   3.1176034474)
 A2 = (   5.2854657195,   0.0000000000,  -2.9215865526)
 A3 = (   3.4465043592,   4.9552365218,   0.1960168948)

Analysis of symmetry for initial positions (statically):
 Subroutine PRICEL returns:
 Original cell was already a primitive cell.

 Routine SETGRP: Setting up the symmetry group for a
 face centered orthorhombic supercell.

 Subroutine GETGRP returns: Found  4 space group operations
 (whereof  2 operations were pure point group operations)
 out of a pool of  8 trial point group operations.

The static configuration has the point symmetry S_2 .
 The point group associated with its full space group is C_2h.

Analysis of symmetry for dynamics (positions and initial velocities):
 Subroutine PRICEL returns:
 Original cell was already a primitive cell.

 Routine SETGRP: Setting up the symmetry group for a
 face centered orthorhombic supercell.

 Subroutine GETGRP returns: Found  4 space group operations
 (whereof  2 operations were pure point group operations)
 out of a pool of  8 trial point group operations.

The dynamic configuration has the point symmetry S_2 .
 The point group associated with its full space group is C_2h.

 Subroutine INISYM returns: Found  4 space group operations
 (whereof  2 operations are pure point group operations),
 and found     1 'primitive' translations

                                     Primitive cell

  volume of cell :     158.1708

  direct lattice vectors                    reciprocal lattice vectors
     5.285465719  0.000000000 -2.921586553     0.189198086  0.070214200  0.000000000
    -1.838961360  4.955236522 -2.921586553     0.000000000  0.201806714  0.000000000
     0.000000000  0.000000000  6.039190000     0.091528597  0.131595900  0.165585120

  length of vectors
     6.039190000  6.039190000  6.039190000     0.201806714  0.201806714  0.230463439

  position of ions in fractional coordinates (direct lattice)
     0.000000000  0.000000000  0.000000000
     0.500000000  0.500000000  0.000000000
     0.250000000  0.250000000  0.000000000
     1.000000000  0.500000000  0.500000000
     0.750000000  0.750000000  0.000000000
     0.500000000  0.000000000  0.500000000
     0.242200000  0.742200000  0.984410000
     0.757800000  0.257800000  0.015590000
     0.742200000  0.757800000  0.500000000
     0.257800000  0.242200000  0.500000000

  ion indices of the primitive-cell ions
   primitive index   ion index
                 1           1
                 2           2
                 3           3
                 4           4
                 5           5
                 6           6
                 7           7
                 8           8
                 9           9
                10          10

 KPOINTS: EA

Automatic generation of k-mesh.
 Grid dimensions read from file:
 generate k-points for:    7    7    8

 Generating k-lattice:

  Cartesian coordinates                     Fractional coordinates (reciprocal lattice)
     0.027028298  0.010030600  0.000000000     0.142857143 -0.000000000  0.000000000
     0.000000000  0.028829531  0.000000000     0.000000000  0.142857143  0.000000000
     0.011441075  0.016449488  0.020698140     0.000000000  0.000000000  0.125000000

  Length of vectors
     0.028829531  0.028829531  0.028807930

  Shift w.r.t. Gamma in fractional coordinates (k-lattice)
     0.000000000  0.000000000  0.000000000

 WARNING: IBZKPT: internal override: KBLOWUP is changed to .FALSE.
      ... skipping the blow-up phase ...

 Subroutine IBZKPT returns following result:

 Found    116 irreducible k-points:

 Following reciprocal coordinates:
            Coordinates               Weight
  0.000000  0.000000  0.000000      1.000000
  0.142857 -0.000000  0.000000      4.000000
  0.285714 -0.000000  0.000000      4.000000
  0.428571 -0.000000  0.000000      4.000000
  0.142857  0.142857  0.000000      2.000000
  0.285714  0.142857  0.000000      4.000000
  0.428571  0.142857  0.000000      4.000000
 -0.428571  0.142857  0.000000      4.000000
 -0.285714  0.142857  0.000000      4.000000
 -0.142857  0.142857  0.000000      2.000000
  0.285714  0.285714  0.000000      2.000000
  0.428571  0.285714  0.000000      4.000000
 -0.428571  0.285714  0.000000      4.000000
 -0.285714  0.285714  0.000000      2.000000
  0.428571  0.428571  0.000000      2.000000
 -0.428571  0.428571  0.000000      2.000000
 -0.000000  0.000000  0.125000      2.000000
  0.142857 -0.000000  0.125000      4.000000
  0.285714  0.000000  0.125000      4.000000
  0.428571 -0.000000  0.125000      4.000000
 -0.428571  0.000000  0.125000      4.000000
 -0.285714  0.000000  0.125000      4.000000
 -0.142857  0.000000  0.125000      4.000000
  0.142857  0.142857  0.125000      2.000000
  0.285714  0.142857  0.125000      4.000000
  0.428571  0.142857  0.125000      4.000000
 -0.428571  0.142857  0.125000      4.000000
 -0.285714  0.142857  0.125000      4.000000
 -0.142857  0.142857  0.125000      4.000000
  0.285714  0.285714  0.125000      2.000000
  0.428571  0.285714  0.125000      4.000000
 -0.428571  0.285714  0.125000      4.000000
 -0.285714  0.285714  0.125000      4.000000
 -0.142857  0.285714  0.125000      4.000000
  0.428571  0.428571  0.125000      2.000000
 -0.428571  0.428571  0.125000      4.000000
 -0.285714  0.428571  0.125000      4.000000
 -0.142857  0.428571  0.125000      4.000000
 -0.428571 -0.428571  0.125000      2.000000
 -0.285714 -0.428571  0.125000      4.000000
 -0.142857 -0.428571  0.125000      4.000000
 -0.285714 -0.285714  0.125000      2.000000
 -0.142857 -0.285714  0.125000      4.000000
 -0.142857 -0.142857  0.125000      2.000000
 -0.000000  0.000000  0.250000      2.000000
  0.142857 -0.000000  0.250000      4.000000
  0.285714  0.000000  0.250000      4.000000
  0.428571 -0.000000  0.250000      4.000000
 -0.428571  0.000000  0.250000      4.000000
 -0.285714  0.000000  0.250000      4.000000
 -0.142857  0.000000  0.250000      4.000000
  0.142857  0.142857  0.250000      2.000000
  0.285714  0.142857  0.250000      4.000000
  0.428571  0.142857  0.250000      4.000000
 -0.428571  0.142857  0.250000      4.000000
 -0.285714  0.142857  0.250000      4.000000
 -0.142857  0.142857  0.250000      4.000000
  0.285714  0.285714  0.250000      2.000000
  0.428571  0.285714  0.250000      4.000000
 -0.428571  0.285714  0.250000      4.000000
[...]
  0.142857  0.000000  0.500000      4.000000
  0.285714 -0.000000  0.500000      4.000000
  0.428571  0.000000  0.500000      4.000000
  0.142857  0.142857  0.500000      2.000000
  0.285714  0.142857  0.500000      4.000000
  0.428571  0.142857  0.500000      4.000000
 -0.428571  0.142857  0.500000      4.000000
 -0.285714  0.142857  0.500000      4.000000
 -0.142857  0.142857  0.500000      2.000000
  0.285714  0.285714  0.500000      2.000000
  0.428571  0.285714  0.500000      4.000000
 -0.428571  0.285714  0.500000      4.000000
 -0.285714  0.285714  0.500000      2.000000
  0.428571  0.428571  0.500000      2.000000
 -0.428571  0.428571  0.500000      2.000000

 Following cartesian coordinates:
            Coordinates               Weight
  0.000000  0.000000  0.000000      1.000000
  0.027028  0.010031  0.000000      4.000000
[...]
   0.00000000  0.00000000  0.00000000       0.003
   0.14285714 -0.00000000  0.00000000       0.010
   0.28571429 -0.00000000  0.00000000       0.010
   0.42857143 -0.00000000  0.00000000       0.010
   0.14285714  0.14285714  0.00000000       0.005
   0.28571429  0.14285714  0.00000000       0.010
   0.42857143  0.14285714  0.00000000       0.010
  -0.42857143  0.14285714  0.00000000       0.010
  -0.28571429  0.14285714  0.00000000       0.010
  -0.14285714  0.14285714  0.00000000       0.005
   0.28571429  0.28571429  0.00000000       0.005
   0.42857143  0.28571429  0.00000000       0.010
  -0.42857143  0.28571429  0.00000000       0.010
  -0.28571429  0.28571429  0.00000000       0.005
   0.42857143  0.42857143  0.00000000       0.005
  -0.42857143  0.42857143  0.00000000       0.005
  -0.00000000  0.00000000  0.12500000       0.005
   0.14285714 -0.00000000  0.12500000       0.010
   0.28571429  0.00000000  0.12500000       0.010
   0.42857143 -0.00000000  0.12500000       0.010
  -0.42857143  0.00000000  0.12500000       0.010
  -0.28571429  0.00000000  0.12500000       0.010
  -0.14285714  0.00000000  0.12500000       0.010
   0.14285714  0.14285714  0.12500000       0.005
   0.28571429  0.14285714  0.12500000       0.010
   0.42857143  0.14285714  0.12500000       0.010
  -0.42857143  0.14285714  0.12500000       0.010
  -0.28571429  0.14285714  0.12500000       0.010
  -0.14285714  0.14285714  0.12500000       0.010
   0.28571429  0.28571429  0.12500000       0.005
   0.42857143  0.28571429  0.12500000       0.010
  -0.42857143  0.28571429  0.12500000       0.010
  -0.28571429  0.28571429  0.12500000       0.010
  -0.14285714  0.28571429  0.12500000       0.010
   0.42857143  0.42857143  0.12500000       0.005
  -0.42857143  0.42857143  0.12500000       0.010
  -0.28571429  0.42857143  0.12500000       0.010
  -0.14285714  0.42857143  0.12500000       0.010
  -0.42857143 -0.42857143  0.12500000       0.005
  -0.28571429 -0.42857143  0.12500000       0.010
  -0.14285714 -0.42857143  0.12500000       0.010
  -0.28571429 -0.28571429  0.12500000       0.005
  -0.14285714 -0.28571429  0.12500000       0.010
  -0.14285714 -0.14285714  0.12500000       0.005
  -0.00000000  0.00000000  0.25000000       0.005
   0.14285714 -0.00000000  0.25000000       0.010
   0.28571429  0.00000000  0.25000000       0.010
   0.42857143 -0.00000000  0.25000000       0.010
  -0.42857143  0.00000000  0.25000000       0.010
  -0.28571429  0.00000000  0.25000000       0.010
  -0.14285714  0.00000000  0.25000000       0.010
   0.14285714  0.14285714  0.25000000       0.005
   0.28571429  0.14285714  0.25000000       0.010
   0.42857143  0.14285714  0.25000000       0.010
  -0.42857143  0.14285714  0.25000000       0.010
  -0.28571429  0.14285714  0.25000000       0.010
  -0.14285714  0.14285714  0.25000000       0.010
   0.28571429  0.28571429  0.25000000       0.005
   0.42857143  0.28571429  0.25000000       0.010
  -0.42857143  0.28571429  0.25000000       0.010
[...]
   0.14285714  0.00000000  0.50000000       0.010
   0.28571429 -0.00000000  0.50000000       0.010
   0.42857143  0.00000000  0.50000000       0.010
   0.14285714  0.14285714  0.50000000       0.005
   0.28571429  0.14285714  0.50000000       0.010
   0.42857143  0.14285714  0.50000000       0.010
  -0.42857143  0.14285714  0.50000000       0.010
  -0.28571429  0.14285714  0.50000000       0.010
  -0.14285714  0.14285714  0.50000000       0.005
   0.28571429  0.28571429  0.50000000       0.005
   0.42857143  0.28571429  0.50000000       0.010
  -0.42857143  0.28571429  0.50000000       0.010
  -0.28571429  0.28571429  0.50000000       0.005
   0.42857143  0.42857143  0.50000000       0.005
  -0.42857143  0.42857143  0.50000000       0.005

 position of ions in fractional coordinates (direct lattice)
   0.00000000  0.00000000  0.00000000
   0.50000000  0.50000000  0.00000000
   0.25000000  0.25000000  0.00000000
   0.00000000  0.50000000  0.50000000
   0.75000000  0.75000000  0.00000000
   0.50000000  0.00000000  0.50000000
   0.24220000  0.74220000  0.98441000
   0.75780000  0.25780000  0.01559000
   0.74220000  0.75780000  0.50000000
   0.25780000  0.24220000  0.50000000

 position of ions in cartesian coordinates  (Angst):
   0.00000000  0.00000000  0.00000000
   1.72325218  2.47761826 -2.92158655
   0.86162609  1.23880913 -1.46079328
  -0.91948068  2.47761826  1.55880172
   2.58487827  3.71642739 -4.38237983
   2.64273286  0.00000000  1.55880172
  -0.08473732  3.67777655  3.06902923
   3.53124168  1.27745998 -2.87301233
   2.52930774  3.75507824 -1.36278483
   0.91719662  1.20015829  1.55880172

 k-point   1 :   0.0000 0.0000 0.0000  plane waves:    5289
 k-point   2 :   0.1429-0.0000 0.0000  plane waves:    5256
 k-point   3 :   0.2857-0.0000 0.0000  plane waves:    5270
 k-point   4 :   0.4286-0.0000 0.0000  plane waves:    5273
 k-point   5 :   0.1429 0.1429 0.0000  plane waves:    5263
 k-point   6 :   0.2857 0.1429 0.0000  plane waves:    5271
 k-point   7 :   0.4286 0.1429 0.0000  plane waves:    5284
 k-point   8 :  -0.4286 0.1429 0.0000  plane waves:    5286
 k-point   9 :  -0.2857 0.1429 0.0000  plane waves:    5270
 k-point  10 :  -0.1429 0.1429 0.0000  plane waves:    5265
 k-point  11 :   0.2857 0.2857 0.0000  plane waves:    5274
 k-point  12 :   0.4286 0.2857 0.0000  plane waves:    5275
 k-point  13 :  -0.4286 0.2857 0.0000  plane waves:    5286
 k-point  14 :  -0.2857 0.2857 0.0000  plane waves:    5265
 k-point  15 :   0.4286 0.4286 0.0000  plane waves:    5286
 k-point  16 :  -0.4286 0.4286 0.0000  plane waves:    5272
 k-point  17 :  -0.0000 0.0000 0.1250  plane waves:    5267
 k-point  18 :   0.1429-0.0000 0.1250  plane waves:    5266
 k-point  19 :   0.2857 0.0000 0.1250  plane waves:    5280
 k-point  20 :   0.4286-0.0000 0.1250  plane waves:    5281
 k-point  21 :  -0.4286 0.0000 0.1250  plane waves:    5272
 k-point  22 :  -0.2857 0.0000 0.1250  plane waves:    5268
 k-point  23 :  -0.1429 0.0000 0.1250  plane waves:    5254
 k-point  24 :   0.1429 0.1429 0.1250  plane waves:    5280
 k-point  25 :   0.2857 0.1429 0.1250  plane waves:    5280
 k-point  26 :   0.4286 0.1429 0.1250  plane waves:    5284
 k-point  27 :  -0.4286 0.1429 0.1250  plane waves:    5275
 k-point  28 :  -0.2857 0.1429 0.1250  plane waves:    5270
 k-point  29 :  -0.1429 0.1429 0.1250  plane waves:    5258
 k-point  30 :   0.2857 0.2857 0.1250  plane waves:    5277
 k-point  31 :   0.4286 0.2857 0.1250  plane waves:    5283
 k-point  32 :  -0.4286 0.2857 0.1250  plane waves:    5283
 k-point  33 :  -0.2857 0.2857 0.1250  plane waves:    5280
 k-point  34 :  -0.1429 0.2857 0.1250  plane waves:    5280
 k-point  35 :   0.4286 0.4286 0.1250  plane waves:    5283
 k-point  36 :  -0.4286 0.4286 0.1250  plane waves:    5277
 k-point  37 :  -0.2857 0.4286 0.1250  plane waves:    5277
 k-point  38 :  -0.1429 0.4286 0.1250  plane waves:    5271
 k-point  39 :  -0.4286-0.4286 0.1250  plane waves:    5273
 k-point  40 :  -0.2857-0.4286 0.1250  plane waves:    5280
 k-point  41 :  -0.1429-0.4286 0.1250  plane waves:    5276
 k-point  42 :  -0.2857-0.2857 0.1250  plane waves:    5284
 k-point  43 :  -0.1429-0.2857 0.1250  plane waves:    5279
 k-point  44 :  -0.1429-0.1429 0.1250  plane waves:    5282
 k-point  45 :  -0.0000 0.0000 0.2500  plane waves:    5271
 k-point  46 :   0.1429-0.0000 0.2500  plane waves:    5276
 k-point  47 :   0.2857 0.0000 0.2500  plane waves:    5279
 k-point  48 :   0.4286-0.0000 0.2500  plane waves:    5278
 k-point  49 :  -0.4286 0.0000 0.2500  plane waves:    5274
 k-point  50 :  -0.2857 0.0000 0.2500  plane waves:    5263
 k-point  51 :  -0.1429 0.0000 0.2500  plane waves:    5263
 k-point  52 :   0.1429 0.1429 0.2500  plane waves:    5282
 k-point  53 :   0.2857 0.1429 0.2500  plane waves:    5280
 k-point  54 :   0.4286 0.1429 0.2500  plane waves:    5285
 k-point  55 :  -0.4286 0.1429 0.2500  plane waves:    5284
 k-point  56 :  -0.2857 0.1429 0.2500  plane waves:    5276
 k-point  57 :  -0.1429 0.1429 0.2500  plane waves:    5291
 k-point  58 :   0.2857 0.2857 0.2500  plane waves:    5275
 k-point  59 :   0.4286 0.2857 0.2500  plane waves:    5276
 k-point  60 :  -0.4286 0.2857 0.2500  plane waves:    5272
[...]
 k-point 102 :   0.1429 0.0000 0.5000  plane waves:    5282
 k-point 103 :   0.2857-0.0000 0.5000  plane waves:    5275
 k-point 104 :   0.4286 0.0000 0.5000  plane waves:    5279
 k-point 105 :   0.1429 0.1429 0.5000  plane waves:    5278
 k-point 106 :   0.2857 0.1429 0.5000  plane waves:    5283
 k-point 107 :   0.4286 0.1429 0.5000  plane waves:    5277
 k-point 108 :  -0.4286 0.1429 0.5000  plane waves:    5281
 k-point 109 :  -0.2857 0.1429 0.5000  plane waves:    5275
 k-point 110 :  -0.1429 0.1429 0.5000  plane waves:    5274
 k-point 111 :   0.2857 0.2857 0.5000  plane waves:    5283
 k-point 112 :   0.4286 0.2857 0.5000  plane waves:    5293
 k-point 113 :  -0.4286 0.2857 0.5000  plane waves:    5294
 k-point 114 :  -0.2857 0.2857 0.5000  plane waves:    5290
 k-point 115 :   0.4286 0.4286 0.5000  plane waves:    5293
 k-point 116 :  -0.4286 0.4286 0.5000  plane waves:    5310

 maximum and minimum number of plane-waves per node :      2663     2611

 maximum number of plane-waves:      5310
 maximum index in each direction:
   IXMAX=   12   IYMAX=   12   IZMAX=   12
   IXMIN=  -12   IYMIN=  -12   IZMIN=  -12

 parallel 3D FFT for wavefunctions:
    minimum data exchange during FFTs selected (reduces bandwidth)
 parallel 3D FFT for charge:
    minimum data exchange during FFTs selected (reduces bandwidth)

 Broyden mixing: mesh for mixing (old mesh)
   NGX = 25   NGY = 25   NGZ = 25
  (NGX  = 96   NGY  = 96   NGZ  = 96)
  gives a total of  15625 points

 initial charge density was supplied:
 charge density of overlapping atoms calculated
 number of electron      78.0000000 magnetization
 keeping initial charge density in first step

 Maximum index for augmentation-charges        19995 (set IRDMAX)

 First call to EWALD:  gamma=   0.328
 Maximum number of real-space cells 3x 3x 3
 Maximum number of reciprocal cells 3x 3x 3

--------------------------------------- Iteration      1(   1)  ---------------------------------------

 eigenvalue-minimisations  : 11808
 total energy-change (2. order) : 0.6968041E+03  (-0.5112097E+04)
 number of electron      78.0000000 magnetization
 augmentation part       78.0000000 magnetization

 Free energy of the ion-electron system (eV)
  alpha Z        PSCENC =       298.87080037
  Ewald energy   TEWEN  =     -5963.59602375
  -Hartree energ DENC   =     -1979.64879196
  -exchange      EXHF   =         0.00000000
  -V(xc)+E(xc)   XCENC  =       304.34864292
  PAW double counting   =      6361.18088108    -6305.13563559
  entropy T*S    EENTRO =        -0.00053986
  eigenvalues    EBANDS =       -22.95076238
  atomic energy  EATOM  =      8003.73552278
  free energy    TOTEN  =       696.80409362 eV

  energy without entropy =      696.80463348  energy(sigma->0) =      696.80436355

[...]

 eigenvalue-minimisations  : 12612
 total energy-change (2. order) :-0.8320502E+03  (-0.8145968E+03)
 number of electron      78.0000000 magnetization
 augmentation part       78.0000000 magnetization

[...]

 eigenvalue-minimisations  :     0
 total energy-change (2. order) : 0.2444513E-06  (-0.2765095E-06)
 number of electron      78.0000000 magnetization
 augmentation part        8.9740595 magnetization

[...]

--------------------------------------- Iteration      1(  49)  ---------------------------------------

 eigenvalue-minimisations  :     0
 total energy-change (2. order) :-0.3337846E-09  (-0.3334696E-09)
 number of electron      78.0000000 magnetization
 augmentation part        8.9740392 magnetization

 Free energy of the ion-electron system (eV)
  alpha Z        PSCENC =       298.87080037
  Ewald energy   TEWEN  =     -5963.59602375
  -Hartree energ DENC   =     -1926.88793696
  -exchange      EXHF   =         0.00000000
  -V(xc)+E(xc)   XCENC  =       313.56451416
  PAW double counting   =     10836.06078210   -10787.73570001
  entropy T*S    EENTRO =        -0.00159862
  eigenvalues    EBANDS =      -911.19758712
  atomic energy  EATOM  =      8003.73552278
  free energy    TOTEN  =      -137.18722704 eV

  energy without entropy =     -137.18562843  energy(sigma->0) =     -137.18642774

  average scaling for gradient   0.7807

 average (electrostatic) potential at core
  the test charge radii are     0.7672  1.0818  0.9892
  (the norm of the test charge is              1.0000)
       1 -26.0528       2 -26.0528       3 -78.5576       4 -77.4433       5 -78.5576
       6 -77.4431       7 -84.2193       8 -84.2193       9 -84.2013      10 -84.2013

 E-fermi :   8.5894     XC(G=0): -11.9715     alpha+bet :-15.3703

 Fermi energy:         8.5894010564

 k-point     1 :       0.0000    0.0000    0.0000
  band No.  band energies     occupation
      1     -54.5728      2.00000
      2     -54.5726      2.00000
      3     -53.7172      2.00000
      4     -53.7135      2.00000
      5     -28.1717      2.00000
      6     -28.1683      2.00000
      7     -27.8838      2.00000
      8     -27.8836      2.00000
      9     -27.8792      2.00000
     10     -27.8790      2.00000
     11     -27.7185      2.00000
     12     -27.7137      2.00000
     13     -27.4472      2.00000
     14     -27.4420      2.00000
     15     -27.0223      2.00000
     16     -27.0133      2.00000
     17      -4.7728      2.00000
     18      -1.5387      2.00000
     19      -0.5469      2.00000
     20      -0.5431      2.00000
     21       0.2231      2.00000
     22       3.0286      2.00000
     23       3.0314      2.00000
     24       3.3513      2.00000
     25       3.4205      2.00000
     26       3.4728      2.00000
     27       4.2893      2.00000
     28       4.3905      2.00000
     29       4.3947      2.00000
     30       5.4416      2.00000
     31       5.6325      2.00000
     32       6.4371      2.00000
     33       6.5103      2.00000
     34       6.5111      2.00000
     35       6.9880      2.00000
     36       7.5079      2.00000
     37       8.4218      2.00000
     38       8.4592      2.00000
     39       8.7356      0.00000
     40       8.7370      0.00000
     41       9.1748      0.00000
     42       9.2043      0.00000
     43       9.2693      0.00000
     44       9.2712      0.00000
     45       9.9449      0.00000
     46      10.4480      0.00000
     47      11.1331      0.00000
     48      11.1345      0.00000

[...]

 k-point   116 :      -0.4286    0.4286    0.5000
  band No.  band energies     occupation
      1     -54.5730      2.00000
      2     -54.5724      2.00000
      3     -53.7168      2.00000
      4     -53.7139      2.00000
      5     -28.1740      2.00000
      6     -28.1663      2.00000
      7     -27.8936      2.00000
      8     -27.8897      2.00000
      9     -27.8781      2.00000
     10     -27.8730      2.00000
     11     -27.7147      2.00000
     12     -27.7104      2.00000
     13     -27.4466      2.00000
     14     -27.4413      2.00000
     15     -27.0233      2.00000
     16     -27.0132      2.00000
     17      -3.8971      2.00000
     18      -2.7687      2.00000
     19      -0.4772      2.00000
     20      -0.2563      2.00000
     21       0.4936      2.00000
     22       2.1261      2.00000
     23       2.1347      2.00000
     24       2.2013      2.00000
     25       3.1771      2.00000
     26       4.2375      2.00000
     27       4.6282      2.00000
     28       4.6502      2.00000
     29       5.0337      2.00000
     30       5.7642      2.00000
     31       6.0402      2.00000
     32       6.2423      2.00000
     33       6.5234      2.00000
     34       6.8831      2.00000
     35       6.9005      2.00000
     36       7.0698      2.00000
     37       7.8751      2.00000
     38       8.0089      2.00000
     39       8.7286      0.00000
     40       9.1198      0.00000
     41       9.2044      0.00000
     42       9.3256      0.00000
     43      10.2018      0.00000
     44      10.2391      0.00000
     45      10.2962      0.00000
     46      10.3833      0.00000
     47      10.7780      0.00000
     48      10.8161      0.00000

 soft charge-density along one line, spin component           1
         0         1         2         3         4         5         6         7         8         9
 total charge-density along one line

------------------------ aborting loop because EDIFF is reached ----------------------------------------

  FREE ENERGIE OF THE ION-ELECTRON SYSTEM (eV)
  free  energy   TOTEN  =      -137.18722704 eV

  energy  without entropy=     -137.18562843  energy(sigma->0) =     -137.18642774

 writing wavefunctions