 vasp.6.2.0 18Jan21 (build Jan 05 2022 15:41:44) complex

 executed on             LinuxIFC date 2025.05.07  21:25:16

 INCAR:
   SYSTEM = routine with relax: pwdword
   ICHARG = 2
   NPAR = 6
   KPAR = 2
   NCORE = 2
   ADDGRID = T
   PREC = Acc
   ENCUT = 600
   METAGGA = R2SCAN
   LASPH = .TRUE.
   LMIXTAU = .FALSE.
   ALGO = A
   EDIFF = 1E-9
   NELM = 100
   NELMIN = 6
   IALGO = 38
   LREAL = F
   NSW = 0
   ISIF = -1
   ISMEAR = 0
   SIGMA = 0.02

 POTCAR:    PAW_PBE Mo_sv 02Feb2006
 POTCAR:    PAW_PBE Si 05Jan2001
|           W    W    AA    RRRRR   N    N  II  N    N   GGGG   !!!           |
|           W    W   A  A   R    R  NN   N  II  NN   N  G    G  !!!           |
|           W    W  A    A  R    R  N N  N  II  N N  N  G       !!!           |
|           W WW W  AAAAAA  RRRRR   N  N N  II  N  N N  G  GGG   !            |
|           WW  WW  A    A  R   R   N   NN  II  N   NN  G    G                |
|           W    W  A    A  R    R  N    N  II  N    N   GGGG   !!!           |
|     For optimal performance we recommend to set                             |
|       NCORE = 2 up to number-of-cores-per-socket                            |
|     This setting can greatly improve the performance of VASP for DFT.       |
|     The default, NCORE=1 might be grossly inefficient on modern             |
|     multi-core architectures or massively parallel machines. Do your        |
|     Unfortunately you need to use the default for GW and RPA                |
|     calculations (for HF NCORE is supported but not extensively tested      |
|     yet).                                                                   |

 POTCAR:    PAW_PBE Mo_sv 02Feb2006
   VRHFIN =Mo: 4p5s4d

   TITEL  = PAW_PBE Mo_sv 02Feb2006
   POMASS =   95.940; ZVAL   =   14.000    mass and valenz
   ENMAX  =  242.676; ENMIN  =  182.007 eV

 POTCAR:    PAW_PBE Si 05Jan2001
   VRHFIN =Si: s2p2

   TITEL  = PAW_PBE Si 05Jan2001
   POMASS =   28.085; ZVAL   =    4.000    mass and valenz
   ENMAX  =  245.345; ENMIN  =  184.009 eV

  PAW_PBE Mo_sv 02Feb2006               :
  PAW_PBE Si 05Jan2001                  :

 POSCAR: EA255
  positions in direct lattice

 METAGGA = R2SCA    LMAXTAU =  6    LMIXTAU =  F

 ion  position               nearest neighbor table
   1  0.000  0.000  0.000-   2 2.61   3 2.61   3 2.61   2 2.61   3 2.61   2 2.61   3 2.61   2 2.61
                             2 2.62   3 2.62
   2  0.665  0.665  0.329-   3 2.57   1 2.61   1 2.61   1 2.61   1 2.61   1 2.62   3 2.63   3 2.63
                             3 2.63   3 2.63
   3  0.335  0.335  0.671-   2 2.57   1 2.61   1 2.61   1 2.61   1 2.61   1 2.62   2 2.63   2 2.63
                             2 2.63   2 2.63

  LATTYP: Found a body centered tetragonal cell.
 ALAT       =     3.2042645932
 C/A-ratio  =     2.4393091572

  Lattice vectors:

 A1 = (   0.4352391900,  -2.9573699800,  -3.3869454300)
 A2 = (  -2.9892077700,   0.0104217400,  -3.3869454300)
 A3 = (   2.5630004300,   2.9573699800,   2.2565159700)

Analysis of symmetry for initial positions (statically):
 Subroutine PRICEL returns:
 Original cell was already a primitive cell.

 Routine SETGRP: Setting up the symmetry group for a
 body centered tetragonal supercell.

 Subroutine GETGRP returns: Found 16 space group operations
 (whereof 16 operations were pure point group operations)
 out of a pool of 16 trial point group operations.

The static configuration has the point symmetry D_4h.

Analysis of symmetry for dynamics (positions and initial velocities):
 Subroutine PRICEL returns:
 Original cell was already a primitive cell.

 Routine SETGRP: Setting up the symmetry group for a
 body centered tetragonal supercell.

 Subroutine GETGRP returns: Found 16 space group operations
 (whereof 16 operations were pure point group operations)
 out of a pool of 16 trial point group operations.

The dynamic configuration has the point symmetry D_4h.

 Subroutine INISYM returns: Found 16 space group operations
 (whereof 16 operations are pure point group operations),
 and found     1 'primitive' translations

                                     Primitive cell

  volume of cell :      40.1256

  direct lattice vectors                    reciprocal lattice vectors
     2.998239620  0.000000000 -1.130429460     0.333822646  0.048237194  0.000778716
    -0.426207340  2.967791720 -1.130429460     0.000293604  0.337289650  0.000778726
    -0.009031850 -0.010421740  4.517374890     0.083609366  0.096474371  0.221757238

  length of vectors
     3.204264593  3.204264526  4.517395941     0.337290664  0.337290677  0.255879079

  position of ions in fractional coordinates (direct lattice)
     0.000000000  0.000000000  0.000000000
     0.664569630  0.664569630  0.329141260
     0.335430370  0.335430370  0.670858740

  ion indices of the primitive-cell ions
   primitive index   ion index
                 1           1
                 2           2
                 3           3

 KPOINTS: EA

Automatic generation of k-mesh.
 Grid dimensions read from file:
 generate k-points for:   12   12    9

 Generating k-lattice:

  Cartesian coordinates                     Fractional coordinates (reciprocal lattice)
     0.027818554  0.004019766  0.000064893     0.083333333  0.000000000  0.000000000
     0.000024467  0.028107471  0.000064894     0.000000000  0.083333333  0.000000000
     0.009289930  0.010719375  0.024639693    -0.000000000  0.000000000  0.111111111

  Length of vectors
     0.028107555  0.028107556  0.028431009

  Shift w.r.t. Gamma in fractional coordinates (k-lattice)
     0.000000000  0.000000000  0.000000000

 WARNING: IBZKPT: internal override: KBLOWUP is changed to .FALSE.
      ... skipping the blow-up phase ...

 Subroutine IBZKPT returns following result:

 Found    282 irreducible k-points:

 Following reciprocal coordinates:
            Coordinates               Weight
  0.000000  0.000000  0.000000      1.000000
  0.083333 -0.000000  0.000000      4.000000
  0.166667 -0.000000  0.000000      4.000000
  0.250000 -0.000000  0.000000      4.000000
  0.333333  0.000000  0.000000      8.000000
  0.416667 -0.000000 -0.000000      4.000000
  0.500000 -0.000000  0.000000      2.000000
  0.083333  0.083333 -0.000000      2.000000
  0.166667  0.083333  0.000000      4.000000
  0.250000  0.083333 -0.000000      8.000000
  0.333333  0.083333  0.000000      8.000000
  0.416667  0.083333 -0.000000      4.000000
  0.500000  0.083333  0.000000      4.000000
 -0.416667  0.083333  0.000000      8.000000
 -0.333333  0.083333  0.000000      8.000000
 -0.250000  0.083333 -0.000000      4.000000
 -0.166667  0.083333 -0.000000      4.000000
 -0.083333  0.083333 -0.000000      2.000000
  0.166667  0.166667 -0.000000      4.000000
  0.250000  0.166667  0.000000      4.000000
  0.333333  0.166667 -0.000000      8.000000
  0.416667  0.166667 -0.000000      4.000000
  0.500000  0.166667  0.000000      8.000000
 -0.416667  0.166667  0.000000      4.000000
 -0.333333  0.166667 -0.000000      8.000000
 -0.250000  0.166667 -0.000000      4.000000
 -0.166667  0.166667 -0.000000      2.000000
  0.250000  0.250000 -0.000000      2.000000
  0.333333  0.250000  0.000000      8.000000
  0.416667  0.250000 -0.000000      8.000000
  0.500000  0.250000  0.000000      4.000000
 -0.416667  0.250000  0.000000      4.000000
 -0.333333  0.250000  0.000000      8.000000
 -0.250000  0.250000  0.000000      2.000000
  0.333333  0.333333 -0.000000      8.000000
  0.416667  0.333333 -0.000000      8.000000
  0.500000  0.333333 -0.000000      8.000000
 -0.416667  0.333333 -0.000000      8.000000
 -0.333333  0.333333 -0.000000      4.000000
  0.416667  0.416667 -0.000000      2.000000
  0.500000  0.416667 -0.000000      4.000000
 -0.416667  0.416667  0.000000      2.000000
  0.500000  0.500000 -0.000000      1.000000
  0.000000 -0.000000  0.111111      2.000000
  0.083333  0.000000  0.111111      4.000000
  0.166667 -0.000000  0.111111      4.000000
  0.250000 -0.000000  0.111111      4.000000
  0.333333  0.000000  0.111111      8.000000
  0.416667 -0.000000  0.111111      4.000000
  0.500000 -0.000000  0.111111      4.000000
 -0.416667 -0.000000  0.111111      4.000000
 -0.333333 -0.000000  0.111111      8.000000
 -0.250000 -0.000000  0.111111      4.000000
 -0.166667  0.000000  0.111111      4.000000
 -0.083333 -0.000000  0.111111      4.000000
  0.083333  0.083333  0.111111      2.000000
  0.166667  0.083333  0.111111      4.000000
  0.250000  0.083333  0.111111      8.000000
  0.333333  0.083333  0.111111      8.000000
  0.416667  0.083333  0.111111      4.000000
[...]
  0.500000  0.416667  0.444444      4.000000
 -0.416667  0.416667  0.444444      4.000000
 -0.250000  0.416667  0.444444      4.000000
 -0.166667  0.416667  0.444444      4.000000
  0.500000  0.500000  0.444444      2.000000
 -0.416667  0.500000  0.444444      4.000000
 -0.250000  0.500000  0.444444      4.000000
 -0.083333  0.500000  0.444444      4.000000
 -0.416667 -0.416667  0.444444      2.000000
 -0.166667 -0.416667  0.444444      4.000000
 -0.083333 -0.416667  0.444444      4.000000
 -0.250000 -0.250000  0.444444      2.000000
 -0.166667 -0.250000  0.444444      4.000000
 -0.083333 -0.166667  0.444444      4.000000
 -0.083333 -0.083333  0.444444      2.000000

 Following cartesian coordinates:
            Coordinates               Weight
  0.000000  0.000000  0.000000      1.000000
  0.027819  0.004020  0.000065      4.000000
  0.055637  0.008040  0.000130      4.000000
  0.083456  0.012059  0.000195      4.000000
  0.111274  0.016079  0.000260      8.000000
  0.139093  0.020099  0.000324      4.000000
  0.166911  0.024119  0.000389      2.000000
  0.027843  0.032127  0.000130      2.000000
  0.055662  0.036147  0.000195      4.000000
  0.083480  0.040167  0.000260      8.000000
  0.111299  0.044187  0.000324      8.000000
  0.139117  0.048206  0.000389      4.000000
  0.166936  0.052226  0.000454      4.000000
 -0.139068  0.008009 -0.000260      8.000000
 -0.111250  0.012028 -0.000195      8.000000
 -0.083431  0.016048 -0.000130      4.000000
 -0.055613  0.020068 -0.000065      4.000000
 -0.027794  0.024088  0.000000      2.000000
  0.055686  0.064254  0.000260      4.000000
  0.083505  0.068274  0.000324      4.000000
  0.111323  0.072294  0.000389      8.000000
  0.139142  0.076314  0.000454      4.000000
  0.166960  0.080334  0.000519      8.000000
 -0.139044  0.036116 -0.000195      4.000000
 -0.111225  0.040136 -0.000130      8.000000
 -0.083407  0.044156 -0.000065      4.000000
 -0.055588  0.048175  0.000000      2.000000
  0.083529  0.096382  0.000389      2.000000
  0.111348  0.100401  0.000454      8.000000
  0.139166  0.104421  0.000519      8.000000
  0.166985  0.108441  0.000584      4.000000
 -0.139019  0.064224 -0.000130      4.000000
 -0.111201  0.068243 -0.000065      8.000000
 -0.083382  0.072263  0.000000      2.000000
  0.111372  0.128509  0.000519      8.000000
  0.139191  0.132529  0.000584      8.000000
  0.167009  0.136548  0.000649      8.000000
 -0.138995  0.092331 -0.000065      8.000000
 -0.111176  0.096351  0.000000      4.000000
  0.139215  0.160636  0.000649      2.000000
  0.167034  0.164656  0.000714      4.000000
[...]
  -0.13901937  0.06422358 -0.00012978       0.003
  -0.11120081  0.06824335 -0.00006489       0.006
  -0.08338226  0.07226311  0.00000000       0.002
   0.11137208  0.12850895  0.00051915       0.006
   0.13919064  0.13252871  0.00058404       0.006
   0.16700919  0.13654848  0.00064893       0.006
  -0.13899490  0.09233105 -0.00006489       0.006
  -0.11117635  0.09635082  0.00000000       0.003
   0.13921510  0.16063619  0.00064893       0.002
   0.16703366  0.16465595  0.00071383       0.003
  -0.13897043  0.12043852  0.00000000       0.002
   0.16705812  0.19276342  0.00077872       0.001
   0.00928993  0.01071937  0.02463969       0.002
   0.03710848  0.01473914  0.02470459       0.003
   0.06492704  0.01875891  0.02476948       0.003
   0.09274559  0.02277867  0.02483437       0.003
   0.12056414  0.02679844  0.02489927       0.006
   0.14838270  0.03081821  0.02496416       0.003
   0.17620125  0.03483797  0.02502905       0.003
  -0.12980284 -0.00937946  0.02431523       0.003
  -0.10198429 -0.00535969  0.02438012       0.006
  -0.07416573 -0.00133992  0.02444501       0.003
  -0.04634718  0.00267984  0.02450991       0.003
  -0.01852862  0.00669961  0.02457480       0.003
   0.03713295  0.04284661  0.02476948       0.002
   0.06495150  0.04686638  0.02483437       0.003
   0.09277006  0.05088614  0.02489927       0.006
   0.12058861  0.05490591  0.02496416       0.006
   0.14840717  0.05892568  0.02502905       0.003
[...]
   0.20419338  0.20753345  0.09927260       0.003
  -0.10181072  0.16331602  0.09855878       0.003
  -0.04617361  0.17135555  0.09868856       0.003
  -0.01835505  0.17537532  0.09875346       0.003
   0.20421784  0.23564092  0.09933749       0.002
  -0.10178625  0.19142349  0.09862367       0.003
  -0.04614914  0.19946302  0.09875346       0.003
   0.00948797  0.20750256  0.09888324       0.003
  -0.10205539 -0.11775869  0.09790984       0.002
  -0.01859972 -0.10569939  0.09810452       0.003
   0.00921883 -0.10167962  0.09816941       0.003
  -0.04636934 -0.05350421  0.09816941       0.002
  -0.01855079 -0.04948445  0.09823430       0.003
   0.00929223 -0.01735721  0.09836409       0.003
   0.00931670  0.01075026  0.09842899       0.002

 k-points in reciprocal lattice and weights: EA
   0.00000000  0.00000000  0.00000000       0.001
   0.08333333 -0.00000000  0.00000000       0.003
   0.16666667 -0.00000000  0.00000000       0.003
   0.25000000 -0.00000000  0.00000000       0.003
   0.33333333  0.00000000  0.00000000       0.006
   0.41666667 -0.00000000 -0.00000000       0.003
   0.50000000 -0.00000000  0.00000000       0.002
   0.08333333  0.08333333 -0.00000000       0.002
   0.16666667  0.08333333  0.00000000       0.003
   0.25000000  0.08333333 -0.00000000       0.006
   0.33333333  0.08333333  0.00000000       0.006
   0.41666667  0.08333333 -0.00000000       0.003
   0.50000000  0.08333333  0.00000000       0.003
  -0.41666667  0.08333333  0.00000000       0.006
  -0.33333333  0.08333333  0.00000000       0.006
  -0.25000000  0.08333333 -0.00000000       0.003
  -0.16666667  0.08333333 -0.00000000       0.003
  -0.08333333  0.08333333 -0.00000000       0.002
   0.16666667  0.16666667 -0.00000000       0.003
   0.25000000  0.16666667  0.00000000       0.003
   0.33333333  0.16666667 -0.00000000       0.006
   0.41666667  0.16666667 -0.00000000       0.003
   0.50000000  0.16666667  0.00000000       0.006
  -0.41666667  0.16666667  0.00000000       0.003
  -0.33333333  0.16666667 -0.00000000       0.006
  -0.25000000  0.16666667 -0.00000000       0.003
  -0.16666667  0.16666667 -0.00000000       0.002
   0.25000000  0.25000000 -0.00000000       0.002
   0.33333333  0.25000000  0.00000000       0.006
   0.41666667  0.25000000 -0.00000000       0.006
   0.50000000  0.25000000  0.00000000       0.003
  -0.41666667  0.25000000  0.00000000       0.003
  -0.33333333  0.25000000  0.00000000       0.006
  -0.25000000  0.25000000  0.00000000       0.002
   0.33333333  0.33333333 -0.00000000       0.006
   0.41666667  0.33333333 -0.00000000       0.006
   0.50000000  0.33333333 -0.00000000       0.006
  -0.41666667  0.33333333 -0.00000000       0.006
  -0.33333333  0.33333333 -0.00000000       0.003
   0.41666667  0.41666667 -0.00000000       0.002
   0.50000000  0.41666667 -0.00000000       0.003
  -0.41666667  0.41666667  0.00000000       0.002
   0.50000000  0.50000000 -0.00000000       0.001
   0.00000000 -0.00000000  0.11111111       0.002
   0.08333333  0.00000000  0.11111111       0.003
   0.16666667 -0.00000000  0.11111111       0.003
   0.25000000 -0.00000000  0.11111111       0.003
   0.33333333  0.00000000  0.11111111       0.006
   0.41666667 -0.00000000  0.11111111       0.003
   0.50000000 -0.00000000  0.11111111       0.003
  -0.41666667 -0.00000000  0.11111111       0.003
  -0.33333333 -0.00000000  0.11111111       0.006
  -0.25000000 -0.00000000  0.11111111       0.003
  -0.16666667  0.00000000  0.11111111       0.003
  -0.08333333 -0.00000000  0.11111111       0.003
   0.08333333  0.08333333  0.11111111       0.002
   0.16666667  0.08333333  0.11111111       0.003
   0.25000000  0.08333333  0.11111111       0.006
   0.33333333  0.08333333  0.11111111       0.006
   0.41666667  0.08333333  0.11111111       0.003
[...]
   0.50000000  0.41666667  0.44444444       0.003
  -0.41666667  0.41666667  0.44444444       0.003
  -0.25000000  0.41666667  0.44444444       0.003
  -0.16666667  0.41666667  0.44444444       0.003
   0.50000000  0.50000000  0.44444444       0.002
  -0.41666667  0.50000000  0.44444444       0.003
  -0.25000000  0.50000000  0.44444444       0.003
  -0.08333333  0.50000000  0.44444444       0.003
  -0.41666667 -0.41666667  0.44444444       0.002
  -0.16666667 -0.41666667  0.44444444       0.003
  -0.08333333 -0.41666667  0.44444444       0.003
  -0.25000000 -0.25000000  0.44444444       0.002
  -0.16666667 -0.25000000  0.44444444       0.003
  -0.08333333 -0.16666667  0.44444444       0.003
  -0.08333333 -0.08333333  0.44444444       0.002

 position of ions in fractional coordinates (direct lattice)
   0.00000000  0.00000000  0.00000000
   0.66456963  0.66456963  0.32914126
   0.33543037  0.33543037  0.67085874

 position of ions in cartesian coordinates  (Angst):
   0.00000000  0.00000000  0.00000000
   1.70632179  1.96887402 -0.01564371
   0.85667864  0.98849596  2.27215968

 k-point   1 :   0.0000 0.0000 0.0000  plane waves:    1323
 k-point   2 :   0.0833-0.0000 0.0000  plane waves:    1325
 k-point   3 :   0.1667-0.0000 0.0000  plane waves:    1334
 k-point   4 :   0.2500-0.0000 0.0000  plane waves:    1334
 k-point   5 :   0.3333 0.0000 0.0000  plane waves:    1329
 k-point   6 :   0.4167-0.0000-0.0000  plane waves:    1342
 k-point   7 :   0.5000-0.0000 0.0000  plane waves:    1346
 k-point   8 :   0.0833 0.0833-0.0000  plane waves:    1326
 k-point   9 :   0.1667 0.0833 0.0000  plane waves:    1340
 k-point  10 :   0.2500 0.0833-0.0000  plane waves:    1338
 k-point  11 :   0.3333 0.0833 0.0000  plane waves:    1339
 k-point  12 :   0.4167 0.0833-0.0000  plane waves:    1341
 k-point  13 :   0.5000 0.0833 0.0000  plane waves:    1343
 k-point  14 :  -0.4167 0.0833 0.0000  plane waves:    1339
 k-point  15 :  -0.3333 0.0833 0.0000  plane waves:    1341
 k-point  16 :  -0.2500 0.0833-0.0000  plane waves:    1340
 k-point  17 :  -0.1667 0.0833-0.0000  plane waves:    1338
 k-point  18 :  -0.0833 0.0833-0.0000  plane waves:    1323
 k-point  19 :   0.1667 0.1667-0.0000  plane waves:    1344
 k-point  20 :   0.2500 0.1667 0.0000  plane waves:    1342
 k-point  21 :   0.3333 0.1667-0.0000  plane waves:    1337
 k-point  22 :   0.4167 0.1667-0.0000  plane waves:    1334
 k-point  23 :   0.5000 0.1667 0.0000  plane waves:    1339
 k-point  24 :  -0.4167 0.1667 0.0000  plane waves:    1342
 k-point  25 :  -0.3333 0.1667-0.0000  plane waves:    1340
 k-point  26 :  -0.2500 0.1667-0.0000  plane waves:    1330
 k-point  27 :  -0.1667 0.1667-0.0000  plane waves:    1337
 k-point  28 :   0.2500 0.2500-0.0000  plane waves:    1337
 k-point  29 :   0.3333 0.2500 0.0000  plane waves:    1339
 k-point  30 :   0.4167 0.2500-0.0000  plane waves:    1331
 k-point  31 :   0.5000 0.2500 0.0000  plane waves:    1337
 k-point  32 :  -0.4167 0.2500 0.0000  plane waves:    1336
 k-point  33 :  -0.3333 0.2500 0.0000  plane waves:    1331
 k-point  34 :  -0.2500 0.2500 0.0000  plane waves:    1335
 k-point  35 :   0.3333 0.3333-0.0000  plane waves:    1332
 k-point  36 :   0.4167 0.3333-0.0000  plane waves:    1331
 k-point  37 :   0.5000 0.3333-0.0000  plane waves:    1329
 k-point  38 :  -0.4167 0.3333-0.0000  plane waves:    1332
 k-point  39 :  -0.3333 0.3333-0.0000  plane waves:    1343
 k-point  40 :   0.4167 0.4167-0.0000  plane waves:    1326
 k-point  41 :   0.5000 0.4167-0.0000  plane waves:    1323
 k-point  42 :  -0.4167 0.4167 0.0000  plane waves:    1329
 k-point  43 :   0.5000 0.5000-0.0000  plane waves:    1342
 k-point  44 :   0.0000-0.0000 0.1111  plane waves:    1331
 k-point  45 :   0.0833 0.0000 0.1111  plane waves:    1333
 k-point  46 :   0.1667-0.0000 0.1111  plane waves:    1343
 k-point  47 :   0.2500-0.0000 0.1111  plane waves:    1336
 k-point  48 :   0.3333 0.0000 0.1111  plane waves:    1336
 k-point  49 :   0.4167-0.0000 0.1111  plane waves:    1345
 k-point  50 :   0.5000-0.0000 0.1111  plane waves:    1346
 k-point  51 :  -0.4167-0.0000 0.1111  plane waves:    1337
 k-point  52 :  -0.3333-0.0000 0.1111  plane waves:    1333
 k-point  53 :  -0.2500-0.0000 0.1111  plane waves:    1343
 k-point  54 :  -0.1667 0.0000 0.1111  plane waves:    1331
 k-point  55 :  -0.0833-0.0000 0.1111  plane waves:    1327
 k-point  56 :   0.0833 0.0833 0.1111  plane waves:    1341
 k-point  57 :   0.1667 0.0833 0.1111  plane waves:    1346
 k-point  58 :   0.2500 0.0833 0.1111  plane waves:    1345
 k-point  59 :   0.3333 0.0833 0.1111  plane waves:    1342
 k-point  60 :   0.4167 0.0833 0.1111  plane waves:    1348
[...]
 k-point 268 :   0.5000 0.4167 0.4444  plane waves:    1326
 k-point 269 :  -0.4167 0.4167 0.4444  plane waves:    1326
 k-point 270 :  -0.2500 0.4167 0.4444  plane waves:    1338
 k-point 271 :  -0.1667 0.4167 0.4444  plane waves:    1345
 k-point 272 :   0.5000 0.5000 0.4444  plane waves:    1330
 k-point 273 :  -0.4167 0.5000 0.4444  plane waves:    1327
 k-point 274 :  -0.2500 0.5000 0.4444  plane waves:    1335
 k-point 275 :  -0.0833 0.5000 0.4444  plane waves:    1340
 k-point 276 :  -0.4167-0.4167 0.4444  plane waves:    1327
 k-point 277 :  -0.1667-0.4167 0.4444  plane waves:    1342
 k-point 278 :  -0.0833-0.4167 0.4444  plane waves:    1340
 k-point 279 :  -0.2500-0.2500 0.4444  plane waves:    1345
 k-point 280 :  -0.1667-0.2500 0.4444  plane waves:    1341
 k-point 281 :  -0.0833-0.1667 0.4444  plane waves:    1345
 k-point 282 :  -0.0833-0.0833 0.4444  plane waves:    1350

 maximum and minimum number of plane-waves per node :       687      650

 maximum number of plane-waves:      1357
 maximum index in each direction:
   IXMAX=    6   IYMAX=    6   IZMAX=    9
   IXMIN=   -6   IYMIN=   -6   IZMIN=   -9

 parallel 3D FFT for wavefunctions:
    minimum data exchange during FFTs selected (reduces bandwidth)
 parallel 3D FFT for charge:
    minimum data exchange during FFTs selected (reduces bandwidth)

 Broyden mixing: mesh for mixing (old mesh)
   NGX = 13   NGY = 13   NGZ = 19
  (NGX  = 56   NGY  = 56   NGZ  = 72)
  gives a total of   3211 points

 initial charge density was supplied:
 charge density of overlapping atoms calculated
 number of electron      22.0000000 magnetization
 keeping initial charge density in first step

 Maximum index for augmentation-charges        22791 (set IRDMAX)

 First call to EWALD:  gamma=   0.518
 Maximum number of real-space cells 3x 3x 2
 Maximum number of reciprocal cells 3x 3x 3

--------------------------------------- Iteration      1(   1)  ---------------------------------------

 eigenvalue-minimisations  : 10152
 total energy-change (2. order) : 0.9008351E+02  (-0.1437343E+04)
 number of electron      22.0000000 magnetization
 augmentation part       22.0000000 magnetization

 Free energy of the ion-electron system (eV)
  alpha Z        PSCENC =        81.39996363
  Ewald energy   TEWEN  =     -1708.33876786
  -Hartree energ DENC   =      -460.27109174
  -exchange      EXHF   =         0.00000000
  -V(xc)+E(xc)   XCENC  =        68.71855397
  PAW double counting   =      1652.68335093    -1627.53825878
  entropy T*S    EENTRO =        -0.00025828
  eigenvalues    EBANDS =        15.01438079
  atomic energy  EATOM  =      2068.41563987
  free energy    TOTEN  =        90.08351254 eV

  energy without entropy =       90.08377082  energy(sigma->0) =       90.08364168

[...]

 eigenvalue-minimisations  : 11862
 total energy-change (2. order) :-0.1393705E+03  (-0.1334497E+03)
 number of electron      22.0000000 magnetization
 augmentation part       22.0000000 magnetization

[...]

 eigenvalue-minimisations  :     0
 total energy-change (2. order) : 0.8967813E+01  (-0.1538152E+01)
 number of electron      22.0000000 magnetization
 augmentation part        2.0376725 magnetization

[...]

 eigenvalue-minimisations  :     0
 total energy-change (2. order) :-0.3234618E-08  ( 0.1478298E-08)
 number of electron      22.0000000 magnetization
 augmentation part        2.0438439 magnetization

[...]

 eigenvalue-minimisations  :     0
 total energy-change (2. order) :-0.5198672E-08  ( 0.1927792E-10)
 number of electron      22.0000000 magnetization
 augmentation part        2.0438445 magnetization

[...]

--------------------------------------- Iteration      1(  25)  ---------------------------------------

 eigenvalue-minimisations  :     0
 total energy-change (2. order) :-0.3410605E-09  (-0.9105100E-12)
 number of electron      22.0000000 magnetization
 augmentation part        2.0438444 magnetization

 Free energy of the ion-electron system (eV)
  alpha Z        PSCENC =        81.39996363
  Ewald energy   TEWEN  =     -1708.33876786
  -Hartree energ DENC   =      -436.80792879
  -exchange      EXHF   =         0.00000000
  -V(xc)+E(xc)   XCENC  =        70.94928596
  PAW double counting   =      3240.84090674    -3218.85548957
  entropy T*S    EENTRO =        -0.00016494
  eigenvalues    EBANDS =      -142.61632756
  atomic energy  EATOM  =      2068.41563987
  free energy    TOTEN  =       -45.01288251 eV

  energy without entropy =      -45.01271758  energy(sigma->0) =      -45.01280005

  average scaling for gradient   1.4024

 average (electrostatic) potential at core
  the test charge radii are     1.0818  0.9892
  (the norm of the test charge is              1.0000)
       1 -74.2338       2 -80.4350       3 -80.4350

 E-fermi :  12.2442     XC(G=0): -13.3986     alpha+bet :-19.7413

 Fermi energy:        12.2441982882

 k-point     1 :       0.0000    0.0000    0.0000
  band No.  band energies     occupation
      1     -50.3337      2.00000
      2     -23.7728      2.00000
      3     -23.6879      2.00000
      4     -23.6879      2.00000
      5      -1.9008      2.00000
      6       5.5086      2.00000
      7       8.8330      2.00000
      8       9.1699      2.00000
      9       9.4728      2.00000
     10       9.4728      2.00000
     11      12.6206      0.00000
     12      15.7039      0.00000
     13      15.7443      0.00000
     14      15.9264      0.00000
     15      15.9265      0.00000
     16      16.7153      0.00000
     17      17.7249      0.00000
     18      17.7249      0.00000

[...]

 k-point   282 :      -0.0833   -0.0833    0.4444
  band No.  band energies     occupation
      1     -50.3304      2.00000
      2     -23.7917      2.00000
      3     -23.7077      2.00000
      4     -23.7054      2.00000
      5      -0.3353      2.00000
      6       2.6633      2.00000
      7       8.4655      2.00000
      8       9.6014      2.00000
      9      10.5756      2.00000
     10      10.5871      2.00000
     11      11.9002      2.00000
     12      12.9471      0.00000
     13      13.6828      0.00000
     14      16.1347      0.00000
     15      18.2776      0.00000
     16      19.1575      0.00000
     17      20.0112      0.00000
     18      20.9005      0.00000

 soft charge-density along one line, spin component           1
         0         1         2         3         4         5         6         7         8         9
 total charge-density along one line

------------------------ aborting loop because EDIFF is reached ----------------------------------------

  FREE ENERGIE OF THE ION-ELECTRON SYSTEM (eV)
  free  energy   TOTEN  =       -45.01288251 eV

  energy  without entropy=      -45.01271758  energy(sigma->0) =      -45.01280005

 writing wavefunctions