 vasp.6.2.0 18Jan21 (build Jan 05 2022 15:41:44) complex

 executed on             LinuxIFC date 2025.05.07  21:31:48

 INCAR:
   SYSTEM = routine with relax: pwdword
   ICHARG = 2
   NPAR = 6
   KPAR = 2
   NCORE = 2
   ADDGRID = T
   PREC = Acc
   ENCUT = 600
   METAGGA = R2SCAN
   LASPH = .TRUE.
   LMIXTAU = .FALSE.
   ALGO = A
   EDIFF = 1E-9
   NELM = 100
   NELMIN = 6
   IALGO = 38
   LREAL = F
   NSW = 0
   ISIF = -1
   ISMEAR = 0
   SIGMA = 0.02

 POTCAR:    PAW_PBE Si 05Jan2001
|           W    W    AA    RRRRR   N    N  II  N    N   GGGG   !!!           |
|           W    W   A  A   R    R  NN   N  II  NN   N  G    G  !!!           |
|           W    W  A    A  R    R  N N  N  II  N N  N  G       !!!           |
|           W WW W  AAAAAA  RRRRR   N  N N  II  N  N N  G  GGG   !            |
|           WW  WW  A    A  R   R   N   NN  II  N   NN  G    G                |
|           W    W  A    A  R    R  N    N  II  N    N   GGGG   !!!           |
|     For optimal performance we recommend to set                             |
|       NCORE = 2 up to number-of-cores-per-socket                            |
|     This setting can greatly improve the performance of VASP for DFT.       |
|     The default, NCORE=1 might be grossly inefficient on modern             |
|     multi-core architectures or massively parallel machines. Do your        |
|     Unfortunately you need to use the default for GW and RPA                |
|     calculations (for HF NCORE is supported but not extensively tested      |
|     yet).                                                                   |

 POTCAR:    PAW_PBE Si 05Jan2001
   VRHFIN =Si: s2p2

   TITEL  = PAW_PBE Si 05Jan2001
   POMASS =   28.085; ZVAL   =    4.000    mass and valenz
   ENMAX  =  245.345; ENMIN  =  184.009 eV

  PAW_PBE Si 05Jan2001                  :

 POSCAR: EA266
  positions in direct lattice

 METAGGA = R2SCA    LMAXTAU =  6    LMIXTAU =  F

 ion  position               nearest neighbor table
   1  0.875  0.875  0.875-   2 2.36   2 2.36   2 2.36   2 2.36
   2  0.125  0.125  0.125-   1 2.36   1 2.36   1 2.36   1 2.36

  LATTYP: Found a face centered cubic cell.
 ALAT       =     5.4437031493

  Lattice vectors:

 A1 = (   3.3335730000,   0.0000000000,   1.9246390000)
 A2 = (   1.1111910000,   3.1429240000,   1.9246390000)
 A3 = (   0.0000000000,   0.0000000000,   3.8492780000)

Analysis of symmetry for initial positions (statically):
 Subroutine PRICEL returns:
 Original cell was already a primitive cell.

 Routine SETGRP: Setting up the symmetry group for a
 face centered cubic supercell.

 Subroutine GETGRP returns: Found 48 space group operations
 (whereof 12 operations were pure point group operations)
 out of a pool of 48 trial point group operations.

The static configuration has the point symmetry D_3d.
 The point group associated with its full space group is O_h .

Analysis of symmetry for dynamics (positions and initial velocities):
 Subroutine PRICEL returns:
 Original cell was already a primitive cell.

 Routine SETGRP: Setting up the symmetry group for a
 face centered cubic supercell.

 Subroutine GETGRP returns: Found 48 space group operations
 (whereof 12 operations were pure point group operations)
 out of a pool of 48 trial point group operations.

The dynamic configuration has the point symmetry D_3d.
 The point group associated with its full space group is O_h .

 Subroutine INISYM returns: Found 48 space group operations
 (whereof 12 operations are pure point group operations),
 and found     1 'primitive' translations

                                     Primitive cell

  volume of cell :      40.3295

  direct lattice vectors                    reciprocal lattice vectors
     3.333573000  0.000000000  1.924639000     0.299978432 -0.106058350  0.000000000
     1.111191000  3.142924000  1.924639000     0.000000000  0.318175050  0.000000000
     0.000000000  0.000000000  3.849278000    -0.149989216 -0.106058350  0.259788979

  length of vectors
     3.849278403  3.849279412  3.849278000     0.318175161  0.318175050  0.318175190

  position of ions in fractional coordinates (direct lattice)
     0.875000000  0.875000000  0.875000000
     0.125000000  0.125000000  0.125000000

  ion indices of the primitive-cell ions
   primitive index   ion index
                 1           1
                 2           2

 KPOINTS: EA

Automatic generation of k-mesh.
 Grid dimensions read from file:
 generate k-points for:   11   11   11

 Generating k-lattice:

  Cartesian coordinates                     Fractional coordinates (reciprocal lattice)
     0.027270767 -0.009641668  0.000000000     0.090909091  0.000000000  0.000000000
     0.000000000  0.028925005  0.000000000     0.000000000  0.090909091  0.000000000
    -0.013635383 -0.009641668  0.023617180     0.000000000  0.000000000  0.090909091

  Length of vectors
     0.028925015  0.028925005  0.028925017

  Shift w.r.t. Gamma in fractional coordinates (k-lattice)
     0.000000000  0.000000000  0.000000000

 Subroutine IBZKPT returns following result:

 Found     56 irreducible k-points:

 Following reciprocal coordinates:
            Coordinates               Weight
  0.000000  0.000000  0.000000      1.000000
  0.090909  0.000000  0.000000      8.000000
  0.181818  0.000000  0.000000      8.000000
  0.272727  0.000000  0.000000      8.000000
  0.363636  0.000000  0.000000      8.000000
  0.454545  0.000000  0.000000      8.000000
  0.090909  0.090909  0.000000      6.000000
  0.181818  0.090909  0.000000     24.000000
  0.272727  0.090909  0.000000     24.000000
  0.363636  0.090909  0.000000     24.000000
  0.454545  0.090909  0.000000     24.000000
 -0.454545  0.090909  0.000000     24.000000
 -0.363636  0.090909  0.000000     24.000000
 -0.272727  0.090909  0.000000     24.000000
 -0.181818  0.090909  0.000000     24.000000
 -0.090909  0.090909  0.000000     12.000000
  0.181818  0.181818  0.000000      6.000000
  0.272727  0.181818  0.000000     24.000000
  0.363636  0.181818  0.000000     24.000000
  0.454545  0.181818  0.000000     24.000000
 -0.454545  0.181818  0.000000     24.000000
 -0.363636  0.181818  0.000000     24.000000
 -0.272727  0.181818  0.000000     24.000000
 -0.181818  0.181818  0.000000     12.000000
  0.272727  0.272727  0.000000      6.000000
  0.363636  0.272727  0.000000     24.000000
  0.454545  0.272727  0.000000     24.000000
 -0.454545  0.272727  0.000000     24.000000
 -0.363636  0.272727  0.000000     24.000000
 -0.272727  0.272727  0.000000     12.000000
  0.363636  0.363636  0.000000      6.000000
  0.454545  0.363636  0.000000     24.000000
 -0.454545  0.363636  0.000000     24.000000
 -0.363636  0.363636  0.000000     12.000000
  0.454545  0.454545  0.000000      6.000000
 -0.454545  0.454545  0.000000     12.000000
  0.272727  0.181818  0.090909     24.000000
  0.363636  0.181818  0.090909     48.000000
  0.454545  0.181818  0.090909     48.000000
 -0.454545  0.181818  0.090909     48.000000
  0.363636  0.272727  0.090909     24.000000
  0.454545  0.272727  0.090909     48.000000
 -0.454545  0.272727  0.090909     48.000000
 -0.363636  0.272727  0.090909     48.000000
 -0.272727  0.272727  0.090909     48.000000
 -0.181818  0.272727  0.090909     24.000000
  0.454545  0.363636  0.090909     24.000000
 -0.454545  0.363636  0.090909     48.000000
 -0.363636  0.363636  0.090909     48.000000
 -0.272727  0.363636  0.090909     24.000000
 -0.454545  0.454545  0.090909     24.000000
 -0.363636  0.454545  0.090909     24.000000
 -0.454545  0.363636  0.181818     24.000000
 -0.363636  0.363636  0.181818     48.000000
 -0.363636  0.454545  0.181818     24.000000
 -0.272727  0.454545  0.181818     24.000000

 Following cartesian coordinates:
            Coordinates               Weight
  0.000000  0.000000  0.000000      1.000000
  0.027271 -0.009642  0.000000      8.000000
  0.054542 -0.019283  0.000000      8.000000
  0.081812 -0.028925  0.000000      8.000000
  0.109083 -0.038567  0.000000      8.000000
  0.136354 -0.048208  0.000000      8.000000
  0.027271  0.019283  0.000000      6.000000
  0.054542  0.009642  0.000000     24.000000
  0.081812  0.000000  0.000000     24.000000
  0.109083 -0.009642  0.000000     24.000000
  0.136354 -0.019283  0.000000     24.000000
 -0.136354  0.077133  0.000000     24.000000
 -0.109083  0.067492  0.000000     24.000000
 -0.081812  0.057850  0.000000     24.000000
 -0.054542  0.048208  0.000000     24.000000
 -0.027271  0.038567  0.000000     12.000000
  0.054542  0.038567  0.000000      6.000000
  0.081812  0.028925  0.000000     24.000000
  0.109083  0.019283  0.000000     24.000000
  0.136354  0.009642  0.000000     24.000000
 -0.136354  0.106058  0.000000     24.000000
 -0.109083  0.096417  0.000000     24.000000
 -0.081812  0.086775  0.000000     24.000000
 -0.054542  0.077133  0.000000     12.000000
  0.081812  0.057850  0.000000      6.000000
  0.109083  0.048208  0.000000     24.000000
  0.136354  0.038567  0.000000     24.000000
 -0.136354  0.134983  0.000000     24.000000
 -0.109083  0.125342  0.000000     24.000000
 -0.081812  0.115700  0.000000     12.000000
  0.109083  0.077133  0.000000      6.000000
  0.136354  0.067492  0.000000     24.000000
 -0.136354  0.163908  0.000000     24.000000
 -0.109083  0.154267  0.000000     12.000000
  0.136354  0.096417  0.000000      6.000000
 -0.136354  0.192833  0.000000     12.000000
  0.068177  0.019283  0.023617     24.000000
  0.095448  0.009642  0.023617     48.000000
  0.122718 -0.000000  0.023617     48.000000
 -0.149989  0.096417  0.023617     48.000000
  0.095448  0.038567  0.023617     24.000000
  0.122718  0.028925  0.023617     48.000000
 -0.149989  0.125342  0.023617     48.000000
 -0.122718  0.115700  0.023617     48.000000
 -0.095448  0.106058  0.023617     48.000000
 -0.068177  0.096417  0.023617     24.000000
  0.122718  0.057850  0.023617     24.000000
 -0.149989  0.154267  0.023617     48.000000
 -0.122718  0.144625  0.023617     48.000000
 -0.095448  0.134983  0.023617     24.000000
 -0.149989  0.183192  0.023617     24.000000
 -0.122718  0.173550  0.023617     24.000000
 -0.163625  0.144625  0.047234     24.000000
 -0.136354  0.134983  0.047234     48.000000
 -0.136354  0.163908  0.047234     24.000000
 -0.109083  0.154267  0.047234     24.000000

 SYSTEM =  routine with relax: pwdword
 POSCAR =  EA266

 Startparameter for this run:
   NWRITE =      2    write-flag & timer
   PREC   = acc       normal or accurate (medium, high low for compatibility)
   ISTART =      0    job   : 0-new  1-cont  2-samecut
   ICHARG =      2    charge: 1-file 2-atom 10-const
   ISPIN  =      1    spin polarized calculation?
   LNONCOLLINEAR =      F non collinear calculations
   LSORBIT =      F    spin-orbit coupling
   INIWAV =      1    electr: 0-lowe 1-rand  2-diag
   LASPH  =      T    aspherical Exc in radial PAW
   METAGGA=      F    non-selfconsistent MetaGGA calc.

 Electronic Relaxation 1
   ENCUT  =  600.0 eV  44.10 Ry    6.64 a.u.   7.69  7.69  7.69*2*pi/ulx,y,z
   ENINI  =  600.0     initial cutoff
   ENAUG  =  322.1 eV  augmentation charge cutoff
   NELM   =    100;   NELMIN=  6; NELMDL= -5     # of ELM steps
[...]
   LHFCALC =     F    Hartree Fock is set to
   LHFONE  =     F    Hartree Fock one center treatment
   AEXX    =    0.0000 exact exchange contribution

 Linear response parameters
   LEPSILON=     F    determine dielectric tensor
   LRPA    =     F    only Hartree local field effects (RPA)
   LNABLA  =     F    use nabla operator in PAW spheres
   LVEL    =     F    velocity operator in full k-point grid
   LINTERFAST=   F  fast interpolation
   KINTER  =     0    interpolate to denser k-point grid
   CSHIFT  =0.1000    complex shift for real part using Kramers Kronig
   OMEGAMAX=  -1.0    maximum frequency
   DEG_THRESHOLD= 0.2000000E-02 threshold for treating states as degnerate
   RTIME   =   -0.100 relaxation time in fs
  (WPLASMAI=    0.000 imaginary part of plasma frequency in eV, 0.658/RTIME)
   DFIELD  = 0.0000000 0.0000000 0.0000000 field for delta impulse in time

 Orbital magnetization related:
   ORBITALMAG=     F  switch on orbital magnetization
   LCHIMAG   =     F  perturbation theory with respect to B field
   DQ        =  0.001000  dq finite difference perturbation B field
   LLRAUG    =     F  two centre corrections for induced B field

 Static calculation
 charge density and potential will be updated during run
 non-spin polarized calculation
 Conjugate gradient for all bands (Freysoldt, et al. PRB 79, 241103 (2009))
 preconditioned conjugated gradient
 perform sub-space diagonalisation
    before iterative eigenvector-optimisation
 modified Broyden-mixing scheme, WC =      100.0
 initial mixing is a Kerker type mixing with AMIX =  0.4000 and BMIX =      1.0000
 Hartree-type preconditioning will be used
 using additional bands            8
 reciprocal scheme for non local part
 use partial core corrections
 no Harris-corrections to forces
 use gradient corrections
 use of overlap-Matrix (Vanderbilt PP)
 Gauss-broadening in eV      SIGMA  =   0.02

  energy-cutoff  :      600.00
  volume of cell :       40.33
      direct lattice vectors                 reciprocal lattice vectors
     3.333573000  0.000000000  1.924639000     0.299978432 -0.106058350  0.000000000
     1.111191000  3.142924000  1.924639000     0.000000000  0.318175050  0.000000000
     0.000000000  0.000000000  3.849278000    -0.149989216 -0.106058350  0.259788979

  length of vectors
     3.849278403  3.849279412  3.849278000     0.318175161  0.318175050  0.318175190

 k-points in units of 2pi/SCALE and weight: EA
   0.00000000  0.00000000  0.00000000       0.001
   0.02727077 -0.00964167  0.00000000       0.006
   0.05454153 -0.01928334  0.00000000       0.006
   0.08181230 -0.02892500  0.00000000       0.006
   0.10908307 -0.03856667  0.00000000       0.006
   0.13635383 -0.04820834  0.00000000       0.006
   0.02727077  0.01928334  0.00000000       0.005
   0.05454153  0.00964167  0.00000000       0.018
   0.08181230  0.00000000  0.00000000       0.018
   0.10908307 -0.00964167  0.00000000       0.018
   0.13635383 -0.01928334  0.00000000       0.018
  -0.13635383  0.07713335  0.00000000       0.018
  -0.10908307  0.06749168  0.00000000       0.018
  -0.08181230  0.05785001  0.00000000       0.018
  -0.05454153  0.04820834  0.00000000       0.018
  -0.02727077  0.03856667  0.00000000       0.009
   0.05454153  0.03856667  0.00000000       0.005
   0.08181230  0.02892500  0.00000000       0.018
   0.10908307  0.01928334  0.00000000       0.018
   0.13635383  0.00964167  0.00000000       0.018
  -0.13635383  0.10605835  0.00000000       0.018
  -0.10908307  0.09641668  0.00000000       0.018
  -0.08181230  0.08677501  0.00000000       0.018
  -0.05454153  0.07713335  0.00000000       0.009
   0.08181230  0.05785001  0.00000000       0.005
   0.10908307  0.04820834  0.00000000       0.018
   0.13635383  0.03856667  0.00000000       0.018
  -0.13635383  0.13498335  0.00000000       0.018
  -0.10908307  0.12534169  0.00000000       0.018
  -0.08181230  0.11570002  0.00000000       0.009
   0.10908307  0.07713335  0.00000000       0.005
   0.13635383  0.06749168  0.00000000       0.018
  -0.13635383  0.16390836  0.00000000       0.018
  -0.10908307  0.15426669  0.00000000       0.009
   0.13635383  0.09641668  0.00000000       0.005
  -0.13635383  0.19283336  0.00000000       0.009
   0.06817692  0.01928334  0.02361718       0.018
   0.09544768  0.00964167  0.02361718       0.036
   0.12271845 -0.00000000  0.02361718       0.036
  -0.14998922  0.09641668  0.02361718       0.036
   0.09544768  0.03856667  0.02361718       0.018
   0.12271845  0.02892500  0.02361718       0.036
  -0.14998922  0.12534169  0.02361718       0.036
  -0.12271845  0.11570002  0.02361718       0.036
  -0.09544768  0.10605835  0.02361718       0.036
  -0.06817692  0.09641668  0.02361718       0.018
   0.12271845  0.05785001  0.02361718       0.018
  -0.14998922  0.15426669  0.02361718       0.036
  -0.12271845  0.14462502  0.02361718       0.036
  -0.09544768  0.13498335  0.02361718       0.018
  -0.14998922  0.18319170  0.02361718       0.018
  -0.12271845  0.17355003  0.02361718       0.018
  -0.16362460  0.14462502  0.04723436       0.018
  -0.13635383  0.13498335  0.04723436       0.036
  -0.13635383  0.16390836  0.04723436       0.018
  -0.10908307  0.15426669  0.04723436       0.018

 k-points in reciprocal lattice and weights: EA
   0.00000000  0.00000000  0.00000000       0.001
   0.09090909  0.00000000  0.00000000       0.006
   0.18181818  0.00000000  0.00000000       0.006
   0.27272727  0.00000000  0.00000000       0.006
   0.36363636  0.00000000  0.00000000       0.006
   0.45454545  0.00000000  0.00000000       0.006
   0.09090909  0.09090909  0.00000000       0.005
   0.18181818  0.09090909  0.00000000       0.018
   0.27272727  0.09090909  0.00000000       0.018
   0.36363636  0.09090909  0.00000000       0.018
   0.45454545  0.09090909  0.00000000       0.018
  -0.45454545  0.09090909  0.00000000       0.018
  -0.36363636  0.09090909  0.00000000       0.018
  -0.27272727  0.09090909  0.00000000       0.018
  -0.18181818  0.09090909  0.00000000       0.018
  -0.09090909  0.09090909  0.00000000       0.009
   0.18181818  0.18181818  0.00000000       0.005
   0.27272727  0.18181818  0.00000000       0.018
   0.36363636  0.18181818  0.00000000       0.018
   0.45454545  0.18181818  0.00000000       0.018
  -0.45454545  0.18181818  0.00000000       0.018
  -0.36363636  0.18181818  0.00000000       0.018
  -0.27272727  0.18181818  0.00000000       0.018
  -0.18181818  0.18181818  0.00000000       0.009
   0.27272727  0.27272727  0.00000000       0.005
   0.36363636  0.27272727  0.00000000       0.018
   0.45454545  0.27272727  0.00000000       0.018
  -0.45454545  0.27272727  0.00000000       0.018
  -0.36363636  0.27272727  0.00000000       0.018
  -0.27272727  0.27272727  0.00000000       0.009
   0.36363636  0.36363636  0.00000000       0.005
   0.45454545  0.36363636  0.00000000       0.018
  -0.45454545  0.36363636  0.00000000       0.018
  -0.36363636  0.36363636  0.00000000       0.009
   0.45454545  0.45454545  0.00000000       0.005
  -0.45454545  0.45454545  0.00000000       0.009
   0.27272727  0.18181818  0.09090909       0.018
   0.36363636  0.18181818  0.09090909       0.036
   0.45454545  0.18181818  0.09090909       0.036
  -0.45454545  0.18181818  0.09090909       0.036
   0.36363636  0.27272727  0.09090909       0.018
   0.45454545  0.27272727  0.09090909       0.036
  -0.45454545  0.27272727  0.09090909       0.036
  -0.36363636  0.27272727  0.09090909       0.036
  -0.27272727  0.27272727  0.09090909       0.036
  -0.18181818  0.27272727  0.09090909       0.018
   0.45454545  0.36363636  0.09090909       0.018
  -0.45454545  0.36363636  0.09090909       0.036
  -0.36363636  0.36363636  0.09090909       0.036
  -0.27272727  0.36363636  0.09090909       0.018
  -0.45454545  0.45454545  0.09090909       0.018
  -0.36363636  0.45454545  0.09090909       0.018
  -0.45454545  0.36363636  0.18181818       0.018
  -0.36363636  0.36363636  0.18181818       0.036
  -0.36363636  0.45454545  0.18181818       0.018
  -0.27272727  0.45454545  0.18181818       0.018

 position of ions in fractional coordinates (direct lattice)
   0.87500000  0.87500000  0.87500000
   0.12500000  0.12500000  0.12500000

 position of ions in cartesian coordinates  (Angst):
   3.88916850  2.75005850  6.73623650
   0.55559550  0.39286550  0.96231950

 k-point   1 :   0.0000 0.0000 0.0000  plane waves:    1363
 k-point   2 :   0.0909 0.0000 0.0000  plane waves:    1363
 k-point   3 :   0.1818 0.0000 0.0000  plane waves:    1342
 k-point   4 :   0.2727 0.0000 0.0000  plane waves:    1351
 k-point   5 :   0.3636 0.0000 0.0000  plane waves:    1350
 k-point   6 :   0.4545 0.0000 0.0000  plane waves:    1356
 k-point   7 :   0.0909 0.0909 0.0000  plane waves:    1343
 k-point   8 :   0.1818 0.0909 0.0000  plane waves:    1346
 k-point   9 :   0.2727 0.0909 0.0000  plane waves:    1344
 k-point  10 :   0.3636 0.0909 0.0000  plane waves:    1349
 k-point  11 :   0.4545 0.0909 0.0000  plane waves:    1350
 k-point  12 :  -0.4545 0.0909 0.0000  plane waves:    1353
 k-point  13 :  -0.3636 0.0909 0.0000  plane waves:    1348
 k-point  14 :  -0.2727 0.0909 0.0000  plane waves:    1355
 k-point  15 :  -0.1818 0.0909 0.0000  plane waves:    1359
 k-point  16 :  -0.0909 0.0909 0.0000  plane waves:    1357
 k-point  17 :   0.1818 0.1818 0.0000  plane waves:    1343
 k-point  18 :   0.2727 0.1818 0.0000  plane waves:    1344
 k-point  19 :   0.3636 0.1818 0.0000  plane waves:    1341
 k-point  20 :   0.4545 0.1818 0.0000  plane waves:    1342
 k-point  21 :  -0.4545 0.1818 0.0000  plane waves:    1352
 k-point  22 :  -0.3636 0.1818 0.0000  plane waves:    1352
 k-point  23 :  -0.2727 0.1818 0.0000  plane waves:    1341
 k-point  24 :  -0.1818 0.1818 0.0000  plane waves:    1354
 k-point  25 :   0.2727 0.2727 0.0000  plane waves:    1343
 k-point  26 :   0.3636 0.2727 0.0000  plane waves:    1344
 k-point  27 :   0.4545 0.2727 0.0000  plane waves:    1339
 k-point  28 :  -0.4545 0.2727 0.0000  plane waves:    1341
 k-point  29 :  -0.3636 0.2727 0.0000  plane waves:    1339
 k-point  30 :  -0.2727 0.2727 0.0000  plane waves:    1336
 k-point  31 :   0.3636 0.3636 0.0000  plane waves:    1347
 k-point  32 :   0.4545 0.3636 0.0000  plane waves:    1341
 k-point  33 :  -0.4545 0.3636 0.0000  plane waves:    1343
 k-point  34 :  -0.3636 0.3636 0.0000  plane waves:    1346
 k-point  35 :   0.4545 0.4545 0.0000  plane waves:    1338
 k-point  36 :  -0.4545 0.4545 0.0000  plane waves:    1344
 k-point  37 :   0.2727 0.1818 0.0909  plane waves:    1350
 k-point  38 :   0.3636 0.1818 0.0909  plane waves:    1352
 k-point  39 :   0.4545 0.1818 0.0909  plane waves:    1345
 k-point  40 :  -0.4545 0.1818 0.0909  plane waves:    1342
 k-point  41 :   0.3636 0.2727 0.0909  plane waves:    1339
 k-point  42 :   0.4545 0.2727 0.0909  plane waves:    1340
 k-point  43 :  -0.4545 0.2727 0.0909  plane waves:    1346
 k-point  44 :  -0.3636 0.2727 0.0909  plane waves:    1348
 k-point  45 :  -0.2727 0.2727 0.0909  plane waves:    1348
 k-point  46 :  -0.1818 0.2727 0.0909  plane waves:    1350
 k-point  47 :   0.4545 0.3636 0.0909  plane waves:    1342
 k-point  48 :  -0.4545 0.3636 0.0909  plane waves:    1345
 k-point  49 :  -0.3636 0.3636 0.0909  plane waves:    1351
 k-point  50 :  -0.2727 0.3636 0.0909  plane waves:    1338
 k-point  51 :  -0.4545 0.4545 0.0909  plane waves:    1343
 k-point  52 :  -0.3636 0.4545 0.0909  plane waves:    1348
 k-point  53 :  -0.4545 0.3636 0.1818  plane waves:    1349
 k-point  54 :  -0.3636 0.3636 0.1818  plane waves:    1347
 k-point  55 :  -0.3636 0.4545 0.1818  plane waves:    1342
 k-point  56 :  -0.2727 0.4545 0.1818  plane waves:    1346

 maximum and minimum number of plane-waves per node :       689      663

 maximum number of plane-waves:      1363
 maximum index in each direction:
   IXMAX=    8   IYMAX=    7   IZMAX=    7
   IXMIN=   -8   IYMIN=   -8   IZMIN=   -7

 parallel 3D FFT for wavefunctions:
    minimum data exchange during FFTs selected (reduces bandwidth)
 parallel 3D FFT for charge:
    minimum data exchange during FFTs selected (reduces bandwidth)

 Broyden mixing: mesh for mixing (old mesh)
   NGX = 15   NGY = 15   NGZ = 15
  (NGX  = 64   NGY  = 64   NGZ  = 64)
  gives a total of   3375 points

 initial charge density was supplied:
 charge density of overlapping atoms calculated
 number of electron       8.0000000 magnetization
 keeping initial charge density in first step

 Maximum index for augmentation-charges        18704 (set IRDMAX)

 First call to EWALD:  gamma=   0.517
 Maximum number of real-space cells 3x 3x 3
 Maximum number of reciprocal cells 3x 3x 3

--------------------------------------- Iteration      1(   1)  ---------------------------------------

 eigenvalue-minimisations  :  1344
 total energy-change (2. order) :-0.4920990E+01  (-0.4636156E+03)
 number of electron       8.0000000 magnetization
 augmentation part        8.0000000 magnetization

 Free energy of the ion-electron system (eV)
  alpha Z        PSCENC =         3.33880741
  Ewald energy   TEWEN  =      -227.98820643
  -Hartree energ DENC   =       -11.11484531
  -exchange      EXHF   =         0.00000000
  -V(xc)+E(xc)   XCENC  =        -9.85596437
  PAW double counting   =       166.52373175     -144.69240633
  entropy T*S    EENTRO =        -0.00031384
  eigenvalues    EBANDS =        12.73508842
  atomic energy  EATOM  =       206.13311910
  free energy    TOTEN  =        -4.92098959 eV

  energy without entropy =       -4.92067575  energy(sigma->0) =       -4.92083267

[...]

 eigenvalue-minimisations  :     0
 total energy-change (2. order) : 0.1215416E+01  (-0.3984853E-01)
 number of electron       8.0000000 magnetization
 augmentation part       -0.4406971 magnetization

[...]

 eigenvalue-minimisations  :     0
 total energy-change (2. order) :-0.1476110E-08  (-0.7899248E-08)
 number of electron       8.0000000 magnetization
 augmentation part       -0.4348183 magnetization

[...]

--------------------------------------- Iteration      1(  24)  ---------------------------------------

 eigenvalue-minimisations  :     0
 total energy-change (2. order) : 0.6712071E-09  (-0.9755545E-09)
 number of electron       8.0000000 magnetization
 augmentation part       -0.4348202 magnetization

 Free energy of the ion-electron system (eV)
  alpha Z        PSCENC =         3.33880741
  Ewald energy   TEWEN  =      -227.98820643
  -Hartree energ DENC   =       -15.03553271
  -exchange      EXHF   =         0.00000000
  -V(xc)+E(xc)   XCENC  =        -8.80731979
  PAW double counting   =      1494.07742467    -1472.43965850
  entropy T*S    EENTRO =        -0.00000000
  eigenvalues    EBANDS =         3.17150674
  atomic energy  EATOM  =       206.13311910
  free energy    TOTEN  =       -17.54985950 eV

  energy without entropy =      -17.54985950  energy(sigma->0) =      -17.54985950

  average scaling for gradient   1.8689

 average (electrostatic) potential at core
  the test charge radii are     0.9892
  (the norm of the test charge is              1.0000)
       1 -86.2564       2 -86.2564

 E-fermi :   5.8379     XC(G=0):  -9.8267     alpha+bet :-11.8943

 Fermi energy:         5.8379259991

 k-point     1 :       0.0000    0.0000    0.0000
  band No.  band energies     occupation
      1      -6.8105      2.00000
      2       5.6648      2.00000
      3       5.6648      2.00000
      4       5.6648      2.00000
      5       8.4200      0.00000
      6       8.4200      0.00000
      7       8.4200      0.00000
      8       9.5654      0.00000
      9      13.7881      0.00000
     10      13.7881      0.00000
     11      14.3353      0.00000
     12      17.6854      0.00000

[...]

 k-point    56 :      -0.2727    0.4545    0.1818
  band No.  band energies     occupation
      1      -2.7021      2.00000
      2      -1.9270      2.00000
      3       1.3901      2.00000
      4       2.1114      2.00000
      5       9.3061      0.00000
      6      10.6256      0.00000
      7      11.4597      0.00000
      8      11.4769      0.00000
      9      15.9494      0.00000
     10      17.0974      0.00000
     11      19.2259      0.00000
     12      20.4705      0.00000

 soft charge-density along one line, spin component           1
         0         1         2         3         4         5         6         7         8         9
 total charge-density along one line

------------------------ aborting loop because EDIFF is reached ----------------------------------------

  FREE ENERGIE OF THE ION-ELECTRON SYSTEM (eV)
  free  energy   TOTEN  =       -17.54985950 eV

  energy  without entropy=      -17.54985950  energy(sigma->0) =      -17.54985950

 writing wavefunctions