 vasp.6.2.0 18Jan21 (build Jan 05 2022 15:41:44) complex

 executed on             LinuxIFC date 2025.05.07  21:03:53

 INCAR:
   SYSTEM = routine with relax: pwdword
   ICHARG = 2
   NPAR = 6
   KPAR = 2
   NCORE = 2
   ADDGRID = T
   PREC = Acc
   ENCUT = 600
   METAGGA = R2SCAN
   LASPH = .TRUE.
   LMIXTAU = .FALSE.
   ALGO = A
   EDIFF = 1E-9
   NELM = 100
   NELMIN = 6
   IALGO = 38
   LREAL = F
   NSW = 0
   ISIF = -1
   ISMEAR = 0
   SIGMA = 0.02

 POTCAR:    PAW_PBE B 06Sep2000
 POTCAR:    PAW_PBE Mo_sv 02Feb2006
 POTCAR:    PAW_PBE Si 05Jan2001
|           W    W    AA    RRRRR   N    N  II  N    N   GGGG   !!!           |
|           W    W   A  A   R    R  NN   N  II  NN   N  G    G  !!!           |
|           W    W  A    A  R    R  N N  N  II  N N  N  G       !!!           |
|           W WW W  AAAAAA  RRRRR   N  N N  II  N  N N  G  GGG   !            |
|           WW  WW  A    A  R   R   N   NN  II  N   NN  G    G                |
|           W    W  A    A  R    R  N    N  II  N    N   GGGG   !!!           |
|     For optimal performance we recommend to set                             |
|       NCORE = 2 up to number-of-cores-per-socket                            |
|     This setting can greatly improve the performance of VASP for DFT.       |
|     The default, NCORE=1 might be grossly inefficient on modern             |
|     multi-core architectures or massively parallel machines. Do your        |
|     Unfortunately you need to use the default for GW and RPA                |
|     calculations (for HF NCORE is supported but not extensively tested      |
|     yet).                                                                   |

 POTCAR:    PAW_PBE B 06Sep2000
   VRHFIN =B: s2p1

   TITEL  = PAW_PBE B 06Sep2000
   POMASS =   10.811; ZVAL   =    3.000    mass and valenz
   ENMAX  =  318.614; ENMIN  =  238.960 eV

 POTCAR:    PAW_PBE Mo_sv 02Feb2006
   VRHFIN =Mo: 4p5s4d

   TITEL  = PAW_PBE Mo_sv 02Feb2006
   POMASS =   95.940; ZVAL   =   14.000    mass and valenz
   ENMAX  =  242.676; ENMIN  =  182.007 eV

 POTCAR:    PAW_PBE Si 05Jan2001
   VRHFIN =Si: s2p2

   TITEL  = PAW_PBE Si 05Jan2001
   POMASS =   28.085; ZVAL   =    4.000    mass and valenz
   ENMAX  =  245.345; ENMIN  =  184.009 eV

  PAW_PBE B 06Sep2000                   :
  PAW_PBE Mo_sv 02Feb2006               :
  PAW_PBE Si 05Jan2001                  :

 POSCAR: EA236
  positions in direct lattice

 METAGGA = R2SCA    LMAXTAU =  6    LMIXTAU =  F

 ion  position               nearest neighbor table
   1  0.000  0.500  0.500-   9 1.98  10 1.98  15 1.98  16 1.98   7 2.47   8 2.47   6 2.59   4 2.59

   2  0.500  0.000  0.500-  13 1.98  14 1.98  11 1.98  12 1.98   4 2.47   6 2.47   7 2.59   8 2.59

   3  0.250  0.250  0.000-  12 2.54  13 2.54   9 2.54  15 2.54  10 2.54  16 2.54  11 2.54  14 2.54
                             4 3.20   6 3.20   7 3.20   7 3.20   4 3.20   6 3.20   8 3.20   8 3.20
   4  0.744  0.244  0.988-  10 1.72  15 1.72  14 1.88  12 1.88   2 2.47   1 2.59   3 3.20   5 3.20
                             3 3.20   5 3.20
   5  0.750  0.750  0.000-  11 2.54  14 2.54  10 2.54  16 2.54  15 2.54   9 2.54  13 2.54  12 2.54
                             4 3.20   6 3.20   8 3.20   8 3.20   6 3.20   4 3.20   7 3.20   7 3.20
   6  0.256  0.756  0.012-   9 1.72  16 1.72  13 1.88  11 1.88   2 2.47   1 2.59   5 3.20   3 3.20
                             5 3.20   3 3.20
   7  0.244  0.256  0.500-  12 1.72  13 1.72   9 1.88  15 1.88   1 2.47   2 2.59   3 3.20   3 3.20
                             5 3.20   5 3.20
   8  0.756  0.744  0.500-  11 1.72  14 1.72  10 1.88  16 1.88   1 2.47   2 2.59   5 3.20   5 3.20
                             3 3.20   3 3.20
   9  0.277  0.517  0.794-   6 1.72   7 1.88   1 1.98  12 2.26  11 2.26   3 2.54   5 2.54  16 2.63
                            15 2.97
  10  0.723  0.483  0.206-   4 1.72   8 1.88   1 1.98  11 2.26  12 2.26   5 2.54   3 2.54  15 2.63
                            16 2.97
  11  0.517  0.723  0.240-   8 1.72   6 1.88   2 1.98  10 2.26   9 2.26   5 2.54   3 2.54  14 2.63
                            13 2.97
  12  0.483  0.277  0.760-   7 1.72   4 1.88   2 1.98   9 2.26  10 2.26   3 2.54   5 2.54  13 2.63
                            14 2.97
  13  0.223  0.017  0.240-   7 1.72   6 1.88   2 1.98  15 2.26  16 2.26   3 2.54   5 2.54  12 2.63
                            11 2.97
  14  0.777  0.983  0.760-   8 1.72   4 1.88   2 1.98  16 2.26  15 2.26   5 2.54   3 2.54  11 2.63
                            12 2.97
  15  0.983  0.223  0.206-   4 1.72   7 1.88   1 1.98  13 2.26  14 2.26   3 2.54   5 2.54  10 2.63
                             9 2.97
  16  0.017  0.777  0.794-   6 1.72   8 1.88   1 1.98  14 2.26  13 2.26   5 2.54   3 2.54   9 2.63
                            10 2.97

  LATTYP: Found a body centered tetragonal cell.
 ALAT       =     7.1475963932
 C/A-ratio  =     1.1020619222

  Lattice vectors:

 A1 = (   5.9325580259,   0.0000000000,  -2.4209112992)
 A2 = (  -2.6788721107,   5.2932871588,  -2.4209112992)
 A3 = (   0.0000000000,   0.0000000000,   6.4075000000)

Analysis of symmetry for initial positions (statically):
 Subroutine PRICEL returns:
 Original cell was already a primitive cell.

 Routine SETGRP: Setting up the symmetry group for a
 body centered tetragonal supercell.

 Subroutine GETGRP returns: Found  4 space group operations
 (whereof  2 operations were pure point group operations)
 out of a pool of 16 trial point group operations.

The static configuration has the point symmetry S_2 .
 The point group associated with its full space group is C_2h.

Analysis of symmetry for dynamics (positions and initial velocities):
 Subroutine PRICEL returns:
 Original cell was already a primitive cell.

 Routine SETGRP: Setting up the symmetry group for a
 body centered tetragonal supercell.

 Subroutine GETGRP returns: Found  4 space group operations
 (whereof  2 operations were pure point group operations)
 out of a pool of 16 trial point group operations.

The dynamic configuration has the point symmetry S_2 .
 The point group associated with its full space group is C_2h.

 Subroutine INISYM returns: Found  4 space group operations
 (whereof  2 operations are pure point group operations),
 and found     1 'primitive' translations

                                     Primitive cell

  volume of cell :     201.2130

  direct lattice vectors                    reciprocal lattice vectors
     5.932558026  0.000000000 -2.420911299     0.168561352  0.085306973  0.000000000
    -2.678872111  5.293287159 -2.420911299     0.000000000  0.188918525  0.000000000
     0.000000000  0.000000000  6.407500000     0.063686630  0.103609146  0.156067109

  length of vectors
     6.407500000  6.407500000  6.407500000     0.188918525  0.188918525  0.197857991

  position of ions in fractional coordinates (direct lattice)
     0.000000000  0.500000000  0.500000000
     0.500000000  0.000000000  0.500000000
     0.250000000  0.250000000  1.000000000
     0.744000000  0.244000000  0.988010000
     0.750000000  0.750000000  1.000000000
     0.256000000  0.756000000  0.011990000
     0.244000000  0.256000000  0.500000000
     0.756000000  0.744000000  0.500000000
     0.277020000  0.516790000  0.793810000
     0.722980000  0.483210000  0.206190000
     0.516790000  0.722980000  0.239770000
     0.483210000  0.277020000  0.760230000
     0.222980000  0.016790000  0.239770000
     0.777020000  0.983210000  0.760230000
     0.983210000  0.222980000  0.206190000
     0.016790000  0.777020000  0.793810000

  ion indices of the primitive-cell ions
   primitive index   ion index
                 1           1
                 2           2
                 3           3
                 4           4
                 5           5
                 6           6
                 7           7
                 8           8
                 9           9
                10          10
                11          11
                12          12
                13          13
                14          14
                15          15
                16          16

 KPOINTS: EA

Automatic generation of k-mesh.
 Grid dimensions read from file:
 generate k-points for:    7    7    7

 Generating k-lattice:

  Cartesian coordinates                     Fractional coordinates (reciprocal lattice)
     0.024080193  0.012186710  0.000000000     0.142857143 -0.000000000  0.000000000
     0.000000000  0.026988361  0.000000000     0.000000000  0.142857143  0.000000000
     0.009098090  0.014801307  0.022295301    -0.000000000 -0.000000000  0.142857143

  Length of vectors
     0.026988361  0.026988361  0.028265427

  Shift w.r.t. Gamma in fractional coordinates (k-lattice)
     0.000000000  0.000000000  0.000000000

 Subroutine IBZKPT returns following result:

 Found    100 irreducible k-points:

 Following reciprocal coordinates:
            Coordinates               Weight
  0.000000  0.000000  0.000000      1.000000
  0.142857 -0.000000  0.000000      4.000000
  0.000000  0.142857 -0.142857      4.000000
  0.285714 -0.000000  0.000000      4.000000
  0.000000  0.285714 -0.285714      4.000000
  0.428571 -0.000000  0.000000      4.000000
  0.000000  0.428571 -0.428571      4.000000
  0.142857  0.142857  0.000000      2.000000
  0.000000  0.285714 -0.142857      4.000000
  0.142857  0.142857 -0.285714      2.000000
  0.285714  0.142857  0.000000      4.000000
  0.000000  0.428571 -0.142857      4.000000
  0.142857  0.285714 -0.428571      4.000000
  0.428571  0.000000 -0.285714      4.000000
  0.428571  0.142857  0.000000      4.000000
  0.000000 -0.428571 -0.142857      4.000000
  0.142857  0.428571  0.428571      4.000000
 -0.428571 -0.000000 -0.428571      4.000000
 -0.428571  0.142857  0.000000      4.000000
  0.000000 -0.285714 -0.142857      4.000000
  0.142857 -0.428571  0.285714      4.000000
 -0.285714  0.000000  0.428571      4.000000
 -0.285714  0.142857  0.000000      4.000000
  0.000000 -0.142857 -0.142857      4.000000
  0.142857 -0.285714  0.142857      4.000000
 -0.142857  0.000000  0.285714      4.000000
 -0.142857  0.142857  0.000000      2.000000
  0.000000  0.000000 -0.142857      2.000000
  0.285714  0.285714  0.000000      2.000000
  0.000000 -0.428571 -0.285714      4.000000
  0.285714  0.285714  0.428571      2.000000
  0.428571  0.285714  0.000000      4.000000
  0.000000 -0.285714 -0.285714      4.000000
  0.285714  0.428571  0.285714      4.000000
 -0.285714  0.000000 -0.428571      4.000000
 -0.428571  0.285714  0.000000      4.000000
  0.000000 -0.142857 -0.285714      4.000000
  0.285714 -0.428571  0.142857      4.000000
 -0.142857 -0.000000  0.428571      4.000000
 -0.285714  0.285714  0.000000      2.000000
  0.000000 -0.000000 -0.285714      2.000000
  0.428571  0.428571  0.000000      2.000000
  0.000000 -0.142857 -0.428571      4.000000
  0.428571  0.428571  0.142857      2.000000
 -0.428571  0.428571  0.000000      2.000000
  0.000000  0.000000 -0.428571      2.000000
  0.142857  0.142857  0.142857      2.000000
 -0.142857  0.428571 -0.142857      4.000000
  0.142857  0.142857 -0.428571      2.000000
  0.285714  0.142857  0.142857      4.000000
[...]
  -0.42857143 -0.14285714 -0.28571429       0.012
  -0.14285714  0.14285714  0.14285714       0.012
   0.28571429  0.28571429  0.14285714       0.006
  -0.14285714 -0.28571429 -0.28571429       0.012
   0.28571429  0.28571429  0.28571429       0.006
   0.42857143  0.28571429  0.14285714       0.012
  -0.14285714 -0.14285714 -0.28571429       0.006
  -0.14285714 -0.14285714 -0.42857143       0.006
[...]
  -0.14285714 -0.28571429  0.28571429       0.012
  -0.14285714 -0.14285714  0.14285714       0.006
  -0.28571429  0.28571429  0.28571429       0.012
  -0.42857143  0.42857143  0.28571429       0.012
  -0.28571429  0.28571429 -0.42857143       0.012
  -0.28571429  0.42857143  0.28571429       0.012
  -0.28571429  0.42857143 -0.42857143       0.012
  -0.42857143 -0.42857143  0.28571429       0.006
  -0.28571429  0.42857143  0.42857143       0.012
  -0.42857143 -0.42857143 -0.42857143       0.006
  -0.28571429 -0.42857143  0.28571429       0.012
  -0.28571429 -0.42857143  0.42857143       0.012
  -0.28571429 -0.28571429  0.28571429       0.006
  -0.42857143  0.42857143  0.42857143       0.012
  -0.42857143 -0.42857143  0.42857143       0.006

 position of ions in fractional coordinates (direct lattice)
   0.00000000  0.50000000  0.50000000
   0.50000000  0.00000000  0.50000000
   0.25000000  0.25000000  0.00000000
   0.74400000  0.24400000  0.98801000
   0.75000000  0.75000000  0.00000000
   0.25600000  0.75600000  0.01199000
   0.24400000  0.25600000  0.50000000
   0.75600000  0.74400000  0.50000000
   0.27702000  0.51679000  0.79381000
   0.72298000  0.48321000  0.20619000
   0.51679000  0.72298000  0.23977000
   0.48321000  0.27702000  0.76023000
   0.22298000  0.01679000  0.23977000
   0.77702000  0.98321000  0.76023000
   0.98321000  0.22298000  0.20619000
   0.01679000  0.77702000  0.79381000

 position of ions in cartesian coordinates  (Angst):
  -1.33943606  2.64664358  1.99329435
   2.96627901  0.00000000  1.99329435
   0.81342148  1.32332179 -1.21045565
   3.76017838  1.29156207  3.93881371
   2.44026444  3.96996537 -3.63136695
  -0.50649246  4.00172509 -2.37313631
   0.76175290  1.35508151  1.99329435
   2.49193302  3.93820565 -0.42761695
   0.25902291  2.73551787  3.16459398
   2.99466301  2.55776929 -1.59891658
   1.12911570  3.82694075 -1.46504693
   2.12457021  1.46634641  3.03072433
   1.27786353  0.08887429  0.95586437
   1.97582239  5.20441287  0.60981303
   5.23561547  1.18029717 -1.59891658
  -1.98192956  4.11298999  3.16459398

 k-point   1 :   0.0000 0.0000 0.0000  plane waves:    6707
 k-point   2 :   0.1429-0.0000 0.0000  plane waves:    6714
 k-point   3 :   0.0000 0.1429-0.1429  plane waves:    6714
 k-point   4 :   0.2857-0.0000 0.0000  plane waves:    6725
 k-point   5 :   0.0000 0.2857-0.2857  plane waves:    6725
 k-point   6 :   0.4286-0.0000 0.0000  plane waves:    6733
 k-point   7 :   0.0000 0.4286-0.4286  plane waves:    6733
 k-point   8 :   0.1429 0.1429 0.0000  plane waves:    6711
 k-point   9 :   0.0000 0.2857-0.1429  plane waves:    6711
 k-point  10 :   0.1429 0.1429-0.2857  plane waves:    6711
 k-point  11 :   0.2857 0.1429 0.0000  plane waves:    6720
 k-point  12 :   0.0000 0.4286-0.1429  plane waves:    6720
 k-point  13 :   0.1429 0.2857-0.4286  plane waves:    6720
 k-point  14 :   0.4286 0.0000-0.2857  plane waves:    6720
 k-point  15 :   0.4286 0.1429 0.0000  plane waves:    6712
 k-point  16 :   0.0000-0.4286-0.1429  plane waves:    6712
 k-point  17 :   0.1429 0.4286 0.4286  plane waves:    6712
 k-point  18 :  -0.4286-0.0000-0.4286  plane waves:    6712
 k-point  19 :  -0.4286 0.1429 0.0000  plane waves:    6718
 k-point  20 :   0.0000-0.2857-0.1429  plane waves:    6718
 k-point  21 :   0.1429-0.4286 0.2857  plane waves:    6718
 k-point  22 :  -0.2857 0.0000 0.4286  plane waves:    6718
 k-point  23 :  -0.2857 0.1429 0.0000  plane waves:    6711
 k-point  24 :   0.0000-0.1429-0.1429  plane waves:    6711
 k-point  25 :   0.1429-0.2857 0.1429  plane waves:    6711
 k-point  26 :  -0.1429 0.0000 0.2857  plane waves:    6711
 k-point  27 :  -0.1429 0.1429 0.0000  plane waves:    6734
 k-point  28 :   0.0000 0.0000-0.1429  plane waves:    6734
 k-point  29 :   0.2857 0.2857 0.0000  plane waves:    6702
 k-point  30 :   0.0000-0.4286-0.2857  plane waves:    6702
 k-point  31 :   0.2857 0.2857 0.4286  plane waves:    6702
 k-point  32 :   0.4286 0.2857 0.0000  plane waves:    6709
 k-point  33 :   0.0000-0.2857-0.2857  plane waves:    6709
 k-point  34 :   0.2857 0.4286 0.2857  plane waves:    6709
 k-point  35 :  -0.2857 0.0000-0.4286  plane waves:    6709
 k-point  36 :  -0.4286 0.2857 0.0000  plane waves:    6714
 k-point  37 :   0.0000-0.1429-0.2857  plane waves:    6714
 k-point  38 :   0.2857-0.4286 0.1429  plane waves:    6714
 k-point  39 :  -0.1429-0.0000 0.4286  plane waves:    6714
 k-point  40 :  -0.2857 0.2857 0.0000  plane waves:    6710
 k-point  41 :   0.0000-0.0000-0.2857  plane waves:    6710
 k-point  42 :   0.4286 0.4286 0.0000  plane waves:    6714
 k-point  43 :   0.0000-0.1429-0.4286  plane waves:    6714
 k-point  44 :   0.4286 0.4286 0.1429  plane waves:    6714
 k-point  45 :  -0.4286 0.4286 0.0000  plane waves:    6720
 k-point  46 :   0.0000 0.0000-0.4286  plane waves:    6720
 k-point  47 :   0.1429 0.1429 0.1429  plane waves:    6718
 k-point  48 :  -0.1429 0.4286-0.1429  plane waves:    6718
 k-point  49 :   0.1429 0.1429-0.4286  plane waves:    6718
 k-point  50 :   0.2857 0.1429 0.1429  plane waves:    6708
 k-point  51 :  -0.1429-0.4286-0.1429  plane waves:    6708
 k-point  52 :   0.1429 0.2857 0.4286  plane waves:    6708
 k-point  53 :  -0.4286-0.1429-0.2857  plane waves:    6708
 k-point  54 :  -0.1429 0.1429 0.1429  plane waves:    6708
 k-point  55 :   0.2857 0.2857 0.1429  plane waves:    6715
 k-point  56 :  -0.1429-0.2857-0.2857  plane waves:    6715
 k-point  57 :   0.2857 0.2857 0.2857  plane waves:    6715
 k-point  58 :   0.4286 0.2857 0.1429  plane waves:    6713
 k-point  59 :  -0.1429-0.1429-0.2857  plane waves:    6713
 k-point  60 :  -0.1429-0.1429-0.4286  plane waves:    6713
[...]
 k-point  86 :  -0.1429-0.2857 0.2857  plane waves:    6715
 k-point  87 :  -0.1429-0.1429 0.1429  plane waves:    6688
 k-point  88 :  -0.2857 0.2857 0.2857  plane waves:    6732
 k-point  89 :  -0.4286 0.4286 0.2857  plane waves:    6717
 k-point  90 :  -0.2857 0.2857-0.4286  plane waves:    6717
 k-point  91 :  -0.2857 0.4286 0.2857  plane waves:    6715
 k-point  92 :  -0.2857 0.4286-0.4286  plane waves:    6715
 k-point  93 :  -0.4286-0.4286 0.2857  plane waves:    6725
 k-point  94 :  -0.2857 0.4286 0.4286  plane waves:    6725
 k-point  95 :  -0.4286-0.4286-0.4286  plane waves:    6725
 k-point  96 :  -0.2857-0.4286 0.2857  plane waves:    6717
 k-point  97 :  -0.2857-0.4286 0.4286  plane waves:    6717
 k-point  98 :  -0.2857-0.2857 0.2857  plane waves:    6720
 k-point  99 :  -0.4286 0.4286 0.4286  plane waves:    6716
 k-point 100 :  -0.4286-0.4286 0.4286  plane waves:    6732

 maximum and minimum number of plane-waves per node :      3376     3334

 maximum number of plane-waves:      6734
 maximum index in each direction:
   IXMAX=   13   IYMAX=   13   IZMAX=   13
   IXMIN=  -13   IYMIN=  -13   IZMIN=  -13

 parallel 3D FFT for wavefunctions:
    minimum data exchange during FFTs selected (reduces bandwidth)
 parallel 3D FFT for charge:
    minimum data exchange during FFTs selected (reduces bandwidth)

 Broyden mixing: mesh for mixing (old mesh)
   NGX = 25   NGY = 25   NGZ = 25
  (NGX  =108   NGY  =108   NGZ  =108)
  gives a total of  15625 points

 initial charge density was supplied:
 charge density of overlapping atoms calculated
 number of electron     122.0000000 magnetization
 keeping initial charge density in first step

 Maximum index for augmentation-charges        22094 (set IRDMAX)

 First call to EWALD:  gamma=   0.302
 Maximum number of real-space cells 3x 3x 3
 Maximum number of reciprocal cells 3x 3x 3

--------------------------------------- Iteration      1(   1)  ---------------------------------------

 eigenvalue-minimisations  : 16068
 total energy-change (2. order) : 0.1324371E+04  (-0.8235172E+04)
 number of electron     122.0000000 magnetization
 augmentation part      122.0000000 magnetization

 Free energy of the ion-electron system (eV)
  alpha Z        PSCENC =       547.50267459
  Ewald energy   TEWEN  =     -8970.40639179
  -Hartree energ DENC   =     -3292.62070356
  -exchange      EXHF   =         0.00000000
  -V(xc)+E(xc)   XCENC  =       462.88736912
  PAW double counting   =      9666.54758295    -9560.21215315
  entropy T*S    EENTRO =        -0.00072159
  eigenvalues    EBANDS =       330.10630595
  atomic energy  EATOM  =     12140.56680252
  free energy    TOTEN  =      1324.37076504 eV

  energy without entropy =     1324.37148663  energy(sigma->0) =     1324.37112584

[...]

 eigenvalue-minimisations  : 17412
 total energy-change (2. order) :-0.1474245E+04  (-0.1423934E+04)
 number of electron     122.0000000 magnetization
 augmentation part      122.0000000 magnetization

[...]

 eigenvalue-minimisations  :     0
 total energy-change (2. order) :-0.1015724E-07  ( 0.1113584E-07)
 number of electron     122.0000001 magnetization
 augmentation part       13.5889157 magnetization

[...]

 eigenvalue-minimisations  :     0
 total energy-change (2. order) :-0.3619789E-08  (-0.1795728E-09)
 number of electron     122.0000001 magnetization
 augmentation part       13.5889123 magnetization

[...]

--------------------------------------- Iteration      1(  31)  ---------------------------------------

 eigenvalue-minimisations  :     0
 total energy-change (2. order) : 0.1164153E-09  (-0.1287092E-09)
 number of electron     122.0000001 magnetization
 augmentation part       13.5889124 magnetization

 Free energy of the ion-electron system (eV)
  alpha Z        PSCENC =       547.50267459
  Ewald energy   TEWEN  =     -8970.40639179
  -Hartree energ DENC   =     -3386.21068345
  -exchange      EXHF   =         0.00000000
  -V(xc)+E(xc)   XCENC  =       486.13774763
  PAW double counting   =     36445.42330719   -36341.82995745
  entropy T*S    EENTRO =        -0.00111958
  eigenvalues    EBANDS =     -1080.08956364
  atomic energy  EATOM  =     12140.56680252
  free energy    TOTEN  =      -158.90718399 eV

  energy without entropy =     -158.90606441  energy(sigma->0) =     -158.90662420

  average scaling for gradient   0.7906

 average (electrostatic) potential at core
  the test charge radii are     0.7672  1.0818  0.9892
  (the norm of the test charge is              1.0000)
       1 -24.5231       2 -24.5232       3 -74.7843       4 -74.0433       5 -74.7843
       6 -74.0433       7 -74.0433       8 -74.0433       9 -81.9147      10 -81.9147
      11 -81.9146      12 -81.9146      13 -81.9146      14 -81.9146      15 -81.9147
      16 -81.9147

 E-fermi :  11.0300     XC(G=0): -12.8120     alpha+bet :-19.9560

 Fermi energy:        11.0300346646

 k-point     1 :       0.0000    0.0000    0.0000
  band No.  band energies     occupation
      1     -51.1303      2.00000
      2     -51.0901      2.00000
      3     -51.0901      2.00000
      4     -51.0566      2.00000
      5     -50.8853      2.00000
      6     -50.8822      2.00000
      7     -26.7252      2.00000
      8     -26.5639      2.00000
      9     -26.5639      2.00000
     10     -26.3619      2.00000
     11     -25.9392      2.00000
     12     -25.7979      2.00000
     13     -25.7979      2.00000
     14     -25.7011      2.00000
     15     -24.6191      2.00000
     16     -24.6101      2.00000
     17     -24.3136      2.00000
     18     -24.3136      2.00000
     19     -24.2596      2.00000
     20     -24.2596      2.00000
     21     -23.6929      2.00000
     22     -23.6774      2.00000
     23     -23.6774      2.00000
     24     -23.6744      2.00000
     25      -3.0370      2.00000
     26      -1.1263      2.00000
     27       0.1208      2.00000
     28       0.2852      2.00000
     29       0.2853      2.00000
     30       1.4025      2.00000
     31       2.1687      2.00000
     32       2.5734      2.00000
     33       2.5734      2.00000
     34       3.7289      2.00000
     35       3.9029      2.00000
     36       3.9031      2.00000
     37       4.5208      2.00000
     38       5.0802      2.00000
     39       5.2580      2.00000
     40       5.2580      2.00000
     41       6.0433      2.00000
     42       6.0958      2.00000
     43       6.0959      2.00000
     44       7.2153      2.00000
     45       7.3204      2.00000
     46       7.7755      2.00000
     47       7.7757      2.00000
     48       7.9349      2.00000
     49       8.0925      2.00000
     50       8.3755      2.00000
     51       8.3756      2.00000
     52       9.0305      2.00000
     53       9.0958      2.00000
     54       9.0959      2.00000
     55       9.4496      2.00000
     56       9.9558      2.00000
     57      10.3988      2.00000
     58      10.3988      2.00000
     59      10.6824      2.00000
     60      10.8016      2.00000
[...]
     64      12.5941      0.00000
     65      12.5942      0.00000
     66      12.9763      0.00000
     67      13.2981      0.00000
     68      13.3118      0.00000
     69      13.4783      0.00000
     70      13.8791      0.00000
     71      13.8802      0.00000
     72      14.5350      0.00000
     73      14.8309      0.00000
     74      14.9230      0.00000
     75      15.3955      0.00000
     76      16.0427      0.00000
     77      16.0470      0.00000
     78      17.7030      0.00000

[...]

 k-point   100 :      -0.4286   -0.4286    0.4286
  band No.  band energies     occupation
      1     -51.1249      2.00000
      2     -51.0910      2.00000
      3     -51.0910      2.00000
      4     -51.0558      2.00000
      5     -50.8871      2.00000
      6     -50.8852      2.00000
      7     -26.6959      2.00000
      8     -26.5495      2.00000
      9     -26.5495      2.00000
     10     -26.3638      2.00000
     11     -25.9417      2.00000
     12     -25.7962      2.00000
     13     -25.7962      2.00000
     14     -25.7026      2.00000
     15     -24.6536      2.00000
     16     -24.5972      2.00000
     17     -24.2809      2.00000
     18     -24.2809      2.00000
     19     -24.2729      2.00000
     20     -24.2729      2.00000
     21     -23.7234      2.00000
     22     -23.7153      2.00000
     23     -23.6960      2.00000
     24     -23.6960      2.00000
     25      -2.3782      2.00000
     26      -0.4961      2.00000
     27      -0.1862      2.00000
     28      -0.1502      2.00000
     29       0.3661      2.00000
     30       0.3662      2.00000
     31       2.4114      2.00000
     32       2.8477      2.00000
     33       2.8478      2.00000
     34       3.7778      2.00000
     35       3.7780      2.00000
     36       4.9374      2.00000
     37       5.3178      2.00000
     38       5.4869      2.00000
     39       5.5167      2.00000
     40       5.5167      2.00000
     41       5.9199      2.00000
     42       6.0429      2.00000
     43       6.1043      2.00000
     44       6.1044      2.00000
     45       6.5151      2.00000
     46       6.5152      2.00000
     47       7.7903      2.00000
     48       7.7903      2.00000
     49       8.2437      2.00000
     50       8.2782      2.00000
     51       8.5459      2.00000
     52       8.5459      2.00000
     53       8.9400      2.00000
     54       9.1018      2.00000
     55       9.1018      2.00000
     56       9.1366      2.00000
     57       9.2163      2.00000
     58       9.4564      2.00000
     59       9.7584      2.00000
     60      10.0134      2.00000
[...]
     64      13.0322      0.00000
     65      13.3799      0.00000
     66      13.8188      0.00000
     67      14.2180      0.00000
     68      14.2282      0.00000
     69      15.2292      0.00000
     70      15.2297      0.00000
     71      15.5113      0.00000
     72      15.5115      0.00000
     73      16.0461      0.00000
     74      16.0489      0.00000
     75      16.2014      0.00000
     76      16.6156      0.00000
     77      17.0940      0.00000
     78      17.1893      0.00000

 soft charge-density along one line, spin component           1
         0         1         2         3         4         5         6         7         8         9
 total charge-density along one line

------------------------ aborting loop because EDIFF is reached ----------------------------------------

  FREE ENERGIE OF THE ION-ELECTRON SYSTEM (eV)
  free  energy   TOTEN  =      -158.90718399 eV

  energy  without entropy=     -158.90606441  energy(sigma->0) =     -158.90662420

 writing wavefunctions