 vasp.6.2.0 18Jan21 (build Jan 05 2022 15:41:44) complex

 executed on             LinuxIFC date 2025.05.07  14:20:51

 INCAR:
   SYSTEM = routine with relax: pwdword
   ICHARG = 2
   NPAR = 6
   KPAR = 2
   NCORE = 2
   ADDGRID = T
   PREC = Acc
   ENCUT = 600
   METAGGA = R2SCAN
   LASPH = .TRUE.
   LMIXTAU = .FALSE.
   ALGO = A
   EDIFF = 1E-9
   NELM = 100
   NELMIN = 6
   IALGO = 38
   LREAL = F
   NSW = 0
   ISIF = -1
   ISMEAR = 0
   SIGMA = 0.02

 POTCAR:    PAW_PBE B 06Sep2000
 POTCAR:    PAW_PBE Mo_sv 02Feb2006
 POTCAR:    PAW_PBE Si 05Jan2001
|           W    W    AA    RRRRR   N    N  II  N    N   GGGG   !!!           |
|           W    W   A  A   R    R  NN   N  II  NN   N  G    G  !!!           |
|           W    W  A    A  R    R  N N  N  II  N N  N  G       !!!           |
|           W WW W  AAAAAA  RRRRR   N  N N  II  N  N N  G  GGG   !            |
|           WW  WW  A    A  R   R   N   NN  II  N   NN  G    G                |
|           W    W  A    A  R    R  N    N  II  N    N   GGGG   !!!           |
|     For optimal performance we recommend to set                             |
|       NCORE = 2 up to number-of-cores-per-socket                            |
|     This setting can greatly improve the performance of VASP for DFT.       |
|     The default, NCORE=1 might be grossly inefficient on modern             |
|     multi-core architectures or massively parallel machines. Do your        |
|     Unfortunately you need to use the default for GW and RPA                |
|     calculations (for HF NCORE is supported but not extensively tested      |
|     yet).                                                                   |

 POTCAR:    PAW_PBE B 06Sep2000
   VRHFIN =B: s2p1

   TITEL  = PAW_PBE B 06Sep2000
   POMASS =   10.811; ZVAL   =    3.000    mass and valenz
   ENMAX  =  318.614; ENMIN  =  238.960 eV

 POTCAR:    PAW_PBE Mo_sv 02Feb2006
   VRHFIN =Mo: 4p5s4d

   TITEL  = PAW_PBE Mo_sv 02Feb2006
   POMASS =   95.940; ZVAL   =   14.000    mass and valenz
   ENMAX  =  242.676; ENMIN  =  182.007 eV

 POTCAR:    PAW_PBE Si 05Jan2001
   VRHFIN =Si: s2p2

   TITEL  = PAW_PBE Si 05Jan2001
   POMASS =   28.085; ZVAL   =    4.000    mass and valenz
   ENMAX  =  245.345; ENMIN  =  184.009 eV

  PAW_PBE B 06Sep2000                   :
  PAW_PBE Mo_sv 02Feb2006               :
  PAW_PBE Si 05Jan2001                  :

 POSCAR: EA17
  positions in direct lattice

 METAGGA = R2SCA    LMAXTAU =  6    LMIXTAU =  F

 ion  position               nearest neighbor table
   1  0.000  0.500  0.000-  11 2.14  12 2.14   7 2.23   6 2.23
   2  0.500  0.500  0.500-  12 2.14  11 2.14   8 2.23   9 2.23
   3  0.500  0.000  0.000-  11 2.14  12 2.14   6 2.23   7 2.23
   4  0.000  0.000  0.500-  11 2.14  12 2.14   8 2.23   9 2.23
   5  0.000  0.000  0.000-   7 2.14   6 2.14   9 2.14   8 2.14  12 2.23  11 2.23
   6  0.248  0.748  0.996-   5 2.14  10 2.14   1 2.23   3 2.23   8 3.03   9 3.03   9 3.03   8 3.03
                            11 3.09  12 3.09  12 3.09  11 3.09
   7  0.752  0.252  0.004-   5 2.14  10 2.14   1 2.23   3 2.23   8 3.03   9 3.03   9 3.03   8 3.03
                            11 3.09  12 3.09  11 3.09  12 3.09
   8  0.748  0.752  0.500-   5 2.14  10 2.14   2 2.23   4 2.23   7 3.03   6 3.03   6 3.03   7 3.03
                            12 3.09  12 3.09  11 3.09  11 3.09
   9  0.252  0.248  0.500-  10 2.14   5 2.14   2 2.23   4 2.23   7 3.03   6 3.03   6 3.03   7 3.03
                            11 3.09  11 3.09  12 3.09  12 3.09
  10  0.500  0.500  0.000-   7 2.14   6 2.14   8 2.14   9 2.14  12 2.23  11 2.23
  11  0.250  0.250  0.000-   1 2.14   3 2.14   2 2.14   4 2.14  10 2.23   5 2.23   7 3.09   6 3.09
                             9 3.09   9 3.09   6 3.09   7 3.09   8 3.09   8 3.09
  12  0.750  0.750  0.000-   1 2.14   3 2.14   4 2.14   2 2.14  10 2.23   5 2.23   7 3.09   6 3.09
                             8 3.09   8 3.09   6 3.09   7 3.09   9 3.09   9 3.09

  Warning from LATTYP: Got some problem with cell dimensions!
  Tried to take original basis but could not verify dimensions!
  LATTYP: Found a base centered monoclinic cell.
 ALAT       =     8.5618247285
 B/A-ratio  =     0.9999861110
 C/A-ratio  =     0.7227127623
 COS(beta)  =    -0.6918281808

  Lattice vectors:

 A1 = (  -5.2801995346,   0.0000000000,  -2.9616558129)
 A2 = (   1.6610917893,  -5.0121134457,  -2.9616558129)
 A3 = (   0.0000000000,   0.0000000000,   6.1877400000)

Analysis of symmetry for initial positions (statically):
 Subroutine PRICEL returns:
 Original cell was already a primitive cell.

 Routine SETGRP: Setting up the symmetry group for a
 base centered monoclinic supercell.

 Subroutine GETGRP returns: Found  4 space group operations
 (whereof  2 operations were pure point group operations)
 out of a pool of  4 trial point group operations.

The static configuration has the point symmetry S_2 .
 The point group associated with its full space group is C_2h.

Analysis of symmetry for dynamics (positions and initial velocities):
 Subroutine PRICEL returns:
 Original cell was already a primitive cell.

 Routine SETGRP: Setting up the symmetry group for a
 base centered monoclinic supercell.

 Subroutine GETGRP returns: Found  4 space group operations
 (whereof  2 operations were pure point group operations)
 out of a pool of  4 trial point group operations.

The dynamic configuration has the point symmetry S_2 .
 The point group associated with its full space group is C_2h.

 Subroutine INISYM returns: Found  4 space group operations
 (whereof  2 operations are pure point group operations),
 and found     1 'primitive' translations

                                     Primitive cell

  volume of cell :     163.7583

  direct lattice vectors                    reciprocal lattice vectors
     5.280199535  0.000000000 -3.226084187     0.189386782  0.062765704  0.000000000
    -1.661091789  5.012113446 -3.226084187     0.000000000  0.199516633  0.000000000
     0.000000000  0.000000000  6.187740000     0.098740041  0.136745387  0.161609893

  length of vectors
     6.187740000  6.187740000  6.187740000     0.199516633  0.199516633  0.233595065

  position of ions in fractional coordinates (direct lattice)
     1.000000000  0.500000000  0.000000000
     0.500000000  0.500000000  0.500000000
     0.500000000  0.000000000  0.000000000
     0.000000000  0.000000000  0.500000000
     0.000000000  0.000000000  0.000000000
     0.248120000  0.748120000  0.996250000
     0.751880000  0.251880000  0.003750000
     0.748120000  0.751880000  0.500000000
     0.251880000  0.248120000  0.500000000
     0.500000000  0.500000000  0.000000000
     0.250000000  0.250000000  0.000000000
     0.750000000  0.750000000  0.000000000

  ion indices of the primitive-cell ions
   primitive index   ion index
                 1           1
                 2           2
                 3           3
                 4           4
                 5           5
                 6           6
                 7           7
                 8           8
                 9           9
                10          10
                11          11
                12          12

 KPOINTS: EA

Automatic generation of k-mesh.
 Grid dimensions read from file:
 generate k-points for:    7    7    8

 Generating k-lattice:

  Cartesian coordinates                     Fractional coordinates (reciprocal lattice)
     0.027055255  0.008966529  0.000000000     0.142857143 -0.000000000  0.000000000
     0.000000000  0.028502376  0.000000000     0.000000000  0.142857143  0.000000000
     0.012342505  0.017093173  0.020201237     0.000000000  0.000000000  0.125000000

  Length of vectors
     0.028502376  0.028502376  0.029199383

  Shift w.r.t. Gamma in fractional coordinates (k-lattice)
     0.000000000  0.000000000  0.000000000

 Subroutine IBZKPT returns following result:

 Found    116 irreducible k-points:

 Following reciprocal coordinates:
            Coordinates               Weight
  0.000000  0.000000  0.000000      1.000000
  0.142857  0.000000  0.000000      4.000000
  0.285714  0.000000  0.000000      4.000000
  0.428571  0.000000  0.000000      4.000000
  0.142857  0.142857  0.000000      2.000000
  0.285714  0.142857  0.000000      4.000000
  0.428571  0.142857  0.000000      4.000000
 -0.428571  0.142857  0.000000      4.000000
 -0.285714  0.142857  0.000000      4.000000
 -0.142857  0.142857  0.000000      2.000000
  0.285714  0.285714  0.000000      2.000000
  0.428571  0.285714  0.000000      4.000000
 -0.428571  0.285714  0.000000      4.000000
 -0.285714  0.285714  0.000000      2.000000
  0.428571  0.428571  0.000000      2.000000
 -0.428571  0.428571  0.000000      2.000000
  0.000000  0.000000  0.125000      2.000000
  0.142857 -0.000000  0.125000      4.000000
  0.285714  0.000000  0.125000      4.000000
  0.428571  0.000000  0.125000      4.000000
 -0.428571 -0.000000  0.125000      4.000000
 -0.285714 -0.000000  0.125000      4.000000
 -0.142857  0.000000  0.125000      4.000000
  0.142857  0.142857  0.125000      2.000000
  0.285714  0.142857  0.125000      4.000000
  0.428571  0.142857  0.125000      4.000000
 -0.428571  0.142857  0.125000      4.000000
 -0.285714  0.142857  0.125000      4.000000
 -0.142857  0.142857  0.125000      4.000000
  0.285714  0.285714  0.125000      2.000000
  0.428571  0.285714  0.125000      4.000000
 -0.428571  0.285714  0.125000      4.000000
 -0.285714  0.285714  0.125000      4.000000
 -0.142857  0.285714  0.125000      4.000000
  0.428571  0.428571  0.125000      2.000000
 -0.428571  0.428571  0.125000      4.000000
 -0.285714  0.428571  0.125000      4.000000
 -0.142857  0.428571  0.125000      4.000000
 -0.428571 -0.428571  0.125000      2.000000
 -0.285714 -0.428571  0.125000      4.000000
 -0.142857 -0.428571  0.125000      4.000000
 -0.285714 -0.285714  0.125000      2.000000
 -0.142857 -0.285714  0.125000      4.000000
 -0.142857 -0.142857  0.125000      2.000000
  0.000000  0.000000  0.250000      2.000000
  0.142857  0.000000  0.250000      4.000000
  0.285714  0.000000  0.250000      4.000000
  0.428571  0.000000  0.250000      4.000000
 -0.428571  0.000000  0.250000      4.000000
 -0.285714  0.000000  0.250000      4.000000
 -0.142857  0.000000  0.250000      4.000000
  0.142857  0.142857  0.250000      2.000000
  0.285714  0.142857  0.250000      4.000000
  0.428571  0.142857  0.250000      4.000000
 -0.428571  0.142857  0.250000      4.000000
 -0.285714  0.142857  0.250000      4.000000
 -0.142857  0.142857  0.250000      4.000000
  0.285714  0.285714  0.250000      2.000000
  0.428571  0.285714  0.250000      4.000000
 -0.428571  0.285714  0.250000      4.000000
[...]
  0.142857  0.000000  0.500000      4.000000
  0.285714  0.000000  0.500000      4.000000
  0.428571  0.000000  0.500000      4.000000
  0.142857  0.142857  0.500000      2.000000
  0.285714  0.142857  0.500000      4.000000
  0.428571  0.142857  0.500000      4.000000
 -0.428571  0.142857  0.500000      4.000000
 -0.285714  0.142857  0.500000      4.000000
 -0.142857  0.142857  0.500000      2.000000
  0.285714  0.285714  0.500000      2.000000
  0.428571  0.285714  0.500000      4.000000
[...]
  -0.14285714  0.42857143  0.12500000       0.010
  -0.42857143 -0.42857143  0.12500000       0.005
  -0.28571429 -0.42857143  0.12500000       0.010
  -0.14285714 -0.42857143  0.12500000       0.010
  -0.28571429 -0.28571429  0.12500000       0.005
  -0.14285714 -0.28571429  0.12500000       0.010
  -0.14285714 -0.14285714  0.12500000       0.005
   0.00000000  0.00000000  0.25000000       0.005
   0.14285714  0.00000000  0.25000000       0.010
   0.28571429  0.00000000  0.25000000       0.010
   0.42857143  0.00000000  0.25000000       0.010
  -0.42857143  0.00000000  0.25000000       0.010
  -0.28571429  0.00000000  0.25000000       0.010
  -0.14285714  0.00000000  0.25000000       0.010
   0.14285714  0.14285714  0.25000000       0.005
   0.28571429  0.14285714  0.25000000       0.010
   0.42857143  0.14285714  0.25000000       0.010
  -0.42857143  0.14285714  0.25000000       0.010
  -0.28571429  0.14285714  0.25000000       0.010
  -0.14285714  0.14285714  0.25000000       0.010
   0.28571429  0.28571429  0.25000000       0.005
   0.42857143  0.28571429  0.25000000       0.010
  -0.42857143  0.28571429  0.25000000       0.010
[...]
   0.14285714  0.00000000  0.50000000       0.010
   0.28571429  0.00000000  0.50000000       0.010
   0.42857143  0.00000000  0.50000000       0.010
   0.14285714  0.14285714  0.50000000       0.005
   0.28571429  0.14285714  0.50000000       0.010
   0.42857143  0.14285714  0.50000000       0.010
  -0.42857143  0.14285714  0.50000000       0.010
  -0.28571429  0.14285714  0.50000000       0.010
  -0.14285714  0.14285714  0.50000000       0.005
   0.28571429  0.28571429  0.50000000       0.005
   0.42857143  0.28571429  0.50000000       0.010
  -0.42857143  0.28571429  0.50000000       0.010
  -0.28571429  0.28571429  0.50000000       0.005
   0.42857143  0.42857143  0.50000000       0.005
  -0.42857143  0.42857143  0.50000000       0.005

 position of ions in fractional coordinates (direct lattice)
   0.00000000  0.50000000  0.00000000
   0.50000000  0.50000000  0.50000000
   0.50000000  0.00000000  0.00000000
   0.00000000  0.00000000  0.50000000
   0.00000000  0.00000000  0.00000000
   0.24812000  0.74812000  0.99625000
   0.75188000  0.25188000  0.00375000
   0.74812000  0.75188000  0.50000000
   0.25188000  0.24812000  0.50000000
   0.50000000  0.50000000  0.00000000
   0.25000000  0.25000000  0.00000000
   0.75000000  0.75000000  0.00000000

 position of ions in cartesian coordinates  (Angst):
  -0.83054589  2.50605672 -1.61304209
   1.80955387  2.50605672 -0.13221419
   2.64009977  0.00000000 -1.61304209
   0.00000000  0.00000000  3.09387000
   0.00000000  0.00000000  0.00000000
   0.06742712  3.74966231  2.95058186
   3.55168063  1.26245113 -3.21501024
   2.70128118  3.76850786 -1.74525628
   0.91782656  1.24360559  1.48082791
   1.80955387  2.50605672 -3.22608419
   0.90477694  1.25302836 -1.61304209
   2.71433081  3.75908508 -4.83912628

 k-point   1 :   0.0000 0.0000 0.0000  plane waves:    5481
 k-point   2 :   0.1429 0.0000 0.0000  plane waves:    5457
 k-point   3 :   0.2857 0.0000 0.0000  plane waves:    5469
 k-point   4 :   0.4286 0.0000 0.0000  plane waves:    5471
 k-point   5 :   0.1429 0.1429 0.0000  plane waves:    5468
 k-point   6 :   0.2857 0.1429 0.0000  plane waves:    5469
 k-point   7 :   0.4286 0.1429 0.0000  plane waves:    5472
 k-point   8 :  -0.4286 0.1429 0.0000  plane waves:    5469
 k-point   9 :  -0.2857 0.1429 0.0000  plane waves:    5481
 k-point  10 :  -0.1429 0.1429 0.0000  plane waves:    5487
 k-point  11 :   0.2857 0.2857 0.0000  plane waves:    5454
 k-point  12 :   0.4286 0.2857 0.0000  plane waves:    5469
 k-point  13 :  -0.4286 0.2857 0.0000  plane waves:    5467
 k-point  14 :  -0.2857 0.2857 0.0000  plane waves:    5497
 k-point  15 :   0.4286 0.4286 0.0000  plane waves:    5464
 k-point  16 :  -0.4286 0.4286 0.0000  plane waves:    5459
 k-point  17 :   0.0000 0.0000 0.1250  plane waves:    5467
 k-point  18 :   0.1429-0.0000 0.1250  plane waves:    5476
 k-point  19 :   0.2857 0.0000 0.1250  plane waves:    5473
 k-point  20 :   0.4286 0.0000 0.1250  plane waves:    5468
 k-point  21 :  -0.4286-0.0000 0.1250  plane waves:    5464
 k-point  22 :  -0.2857-0.0000 0.1250  plane waves:    5470
 k-point  23 :  -0.1429 0.0000 0.1250  plane waves:    5452
 k-point  24 :   0.1429 0.1429 0.1250  plane waves:    5476
 k-point  25 :   0.2857 0.1429 0.1250  plane waves:    5472
 k-point  26 :   0.4286 0.1429 0.1250  plane waves:    5471
 k-point  27 :  -0.4286 0.1429 0.1250  plane waves:    5471
 k-point  28 :  -0.2857 0.1429 0.1250  plane waves:    5478
 k-point  29 :  -0.1429 0.1429 0.1250  plane waves:    5460
 k-point  30 :   0.2857 0.2857 0.1250  plane waves:    5481
 k-point  31 :   0.4286 0.2857 0.1250  plane waves:    5470
 k-point  32 :  -0.4286 0.2857 0.1250  plane waves:    5464
 k-point  33 :  -0.2857 0.2857 0.1250  plane waves:    5462
 k-point  34 :  -0.1429 0.2857 0.1250  plane waves:    5476
 k-point  35 :   0.4286 0.4286 0.1250  plane waves:    5461
 k-point  36 :  -0.4286 0.4286 0.1250  plane waves:    5463
 k-point  37 :  -0.2857 0.4286 0.1250  plane waves:    5464
 k-point  38 :  -0.1429 0.4286 0.1250  plane waves:    5473
 k-point  39 :  -0.4286-0.4286 0.1250  plane waves:    5457
 k-point  40 :  -0.2857-0.4286 0.1250  plane waves:    5460
 k-point  41 :  -0.1429-0.4286 0.1250  plane waves:    5469
 k-point  42 :  -0.2857-0.2857 0.1250  plane waves:    5460
 k-point  43 :  -0.1429-0.2857 0.1250  plane waves:    5460
 k-point  44 :  -0.1429-0.1429 0.1250  plane waves:    5462
 k-point  45 :   0.0000 0.0000 0.2500  plane waves:    5509
 k-point  46 :   0.1429 0.0000 0.2500  plane waves:    5469
 k-point  47 :   0.2857 0.0000 0.2500  plane waves:    5466
 k-point  48 :   0.4286 0.0000 0.2500  plane waves:    5456
 k-point  49 :  -0.4286 0.0000 0.2500  plane waves:    5471
 k-point  50 :  -0.2857 0.0000 0.2500  plane waves:    5470
 k-point  51 :  -0.1429 0.0000 0.2500  plane waves:    5467
 k-point  52 :   0.1429 0.1429 0.2500  plane waves:    5467
 k-point  53 :   0.2857 0.1429 0.2500  plane waves:    5484
 k-point  54 :   0.4286 0.1429 0.2500  plane waves:    5473
 k-point  55 :  -0.4286 0.1429 0.2500  plane waves:    5473
 k-point  56 :  -0.2857 0.1429 0.2500  plane waves:    5476
 k-point  57 :  -0.1429 0.1429 0.2500  plane waves:    5466
 k-point  58 :   0.2857 0.2857 0.2500  plane waves:    5480
 k-point  59 :   0.4286 0.2857 0.2500  plane waves:    5474
 k-point  60 :  -0.4286 0.2857 0.2500  plane waves:    5467
[...]
 k-point 102 :   0.1429 0.0000 0.5000  plane waves:    5465
 k-point 103 :   0.2857 0.0000 0.5000  plane waves:    5467
 k-point 104 :   0.4286 0.0000 0.5000  plane waves:    5473
 k-point 105 :   0.1429 0.1429 0.5000  plane waves:    5472
 k-point 106 :   0.2857 0.1429 0.5000  plane waves:    5471
 k-point 107 :   0.4286 0.1429 0.5000  plane waves:    5469
 k-point 108 :  -0.4286 0.1429 0.5000  plane waves:    5462
 k-point 109 :  -0.2857 0.1429 0.5000  plane waves:    5457
 k-point 110 :  -0.1429 0.1429 0.5000  plane waves:    5460
 k-point 111 :   0.2857 0.2857 0.5000  plane waves:    5461
 k-point 112 :   0.4286 0.2857 0.5000  plane waves:    5458
 k-point 113 :  -0.4286 0.2857 0.5000  plane waves:    5450
 k-point 114 :  -0.2857 0.2857 0.5000  plane waves:    5444
 k-point 115 :   0.4286 0.4286 0.5000  plane waves:    5457
 k-point 116 :  -0.4286 0.4286 0.5000  plane waves:    5456

 maximum and minimum number of plane-waves per node :      2801     2654

 maximum number of plane-waves:      5509
 maximum index in each direction:
   IXMAX=   12   IYMAX=   12   IZMAX=   12
   IXMIN=  -12   IYMIN=  -12   IZMIN=  -12

 parallel 3D FFT for wavefunctions:
    minimum data exchange during FFTs selected (reduces bandwidth)
 parallel 3D FFT for charge:
    minimum data exchange during FFTs selected (reduces bandwidth)

 Broyden mixing: mesh for mixing (old mesh)
   NGX = 25   NGY = 25   NGZ = 25
  (NGX  =100   NGY  =100   NGZ  =100)
  gives a total of  15625 points

 initial charge density was supplied:
 charge density of overlapping atoms calculated
 number of electron     104.0000000 magnetization
 keeping initial charge density in first step

 Maximum index for augmentation-charges        23033 (set IRDMAX)

 First call to EWALD:  gamma=   0.324
 Maximum number of real-space cells 3x 3x 3
 Maximum number of reciprocal cells 3x 3x 3

--------------------------------------- Iteration      1(   1)  ---------------------------------------

 eigenvalue-minimisations  : 15348
 total energy-change (2. order) : 0.1130258E+04  (-0.7054218E+04)
 number of electron     104.0000000 magnetization
 augmentation part      104.0000000 magnetization

 Free energy of the ion-electron system (eV)
  alpha Z        PSCENC =       570.53116171
  Ewald energy   TEWEN  =     -8125.74628502
  -Hartree energ DENC   =     -3537.02502792
  -exchange      EXHF   =         0.00000000
  -V(xc)+E(xc)   XCENC  =       488.23929332
  PAW double counting   =      9250.47132855    -9210.50234729
  entropy T*S    EENTRO =        -0.00074905
  eigenvalues    EBANDS =        29.78387977
  atomic energy  EATOM  =     11664.50664672
  free energy    TOTEN  =      1130.25790080 eV

  energy without entropy =     1130.25864985  energy(sigma->0) =     1130.25827532

[...]

 eigenvalue-minimisations  : 17010
 total energy-change (2. order) :-0.1297739E+04  (-0.1268287E+04)
 number of electron     104.0000000 magnetization
 augmentation part      104.0000000 magnetization

[...]

 eigenvalue-minimisations  :     0
 total energy-change (2. order) : 0.5792863E+02  (-0.1367756E+02)
 number of electron     104.0000001 magnetization
 augmentation part       14.4593310 magnetization

[...]

 eigenvalue-minimisations  :     0
 total energy-change (2. order) : 0.1282388E-08  ( 0.9460311E-10)
 number of electron     104.0000001 magnetization
 augmentation part       14.4905403 magnetization

[...]

 eigenvalue-minimisations  :     0
 total energy-change (2. order) :-0.1047738E-08  (-0.3753470E-10)
 number of electron     104.0000001 magnetization
 augmentation part       14.4905403 magnetization

[...]

--------------------------------------- Iteration      1(  36)  ---------------------------------------

 eigenvalue-minimisations  :     0
 total energy-change (2. order) : 0.6784830E-09  ( 0.8318695E-10)
 number of electron     104.0000001 magnetization
 augmentation part       14.4905403 magnetization

 Free energy of the ion-electron system (eV)
  alpha Z        PSCENC =       570.53116171
  Ewald energy   TEWEN  =     -8125.74628502
  -Hartree energ DENC   =     -3497.44594660
  -exchange      EXHF   =         0.00000000
  -V(xc)+E(xc)   XCENC  =       502.64368803
  PAW double counting   =     16994.79873899   -16969.99734919
  entropy T*S    EENTRO =        -0.00237944
  eigenvalues    EBANDS =     -1315.34845549
  atomic energy  EATOM  =     11664.50664672
  free energy    TOTEN  =      -176.06018028 eV

  energy without entropy =     -176.05780084  energy(sigma->0) =     -176.05899056

  average scaling for gradient   1.1400

 average (electrostatic) potential at core
  the test charge radii are     0.7672  1.0818  0.9892
  (the norm of the test charge is              1.0000)
       1 -24.7281       2 -24.7281       3 -24.7287       4 -24.7281       5 -76.5782
       6 -77.0297       7 -77.0297       8 -77.0270       9 -77.0270      10 -76.5782
      11 -83.0195      12 -83.0195

 E-fermi :   9.3857     XC(G=0): -12.7539     alpha+bet :-17.0881

 Fermi energy:         9.3856981157

 k-point     1 :       0.0000    0.0000    0.0000
  band No.  band energies     occupation
      1     -54.2026      2.00000
      2     -53.3071      2.00000
      3     -53.3041      2.00000
      4     -53.2360      2.00000
      5     -53.2285      2.00000
      6     -52.2171      2.00000
      7     -30.2453      2.00000
      8     -30.2452      2.00000
      9     -27.4297      2.00000
     10     -27.3886      2.00000
     11     -27.3577      2.00000
     12     -27.2096      2.00000
     13     -27.2085      2.00000
     14     -26.7567      2.00000
     15     -26.7235      2.00000
     16     -26.6378      2.00000
     17     -26.6353      2.00000
     18     -26.5799      2.00000
     19     -26.4636      2.00000
     20     -26.4582      2.00000
     21     -26.2667      2.00000
     22     -25.9544      2.00000
     23     -23.8118      2.00000
     24     -23.8110      2.00000
     25      -3.1449      2.00000
     26      -0.2947      2.00000
     27       1.3857      2.00000
     28       1.3868      2.00000
     29       2.2774      2.00000
     30       3.0101      2.00000
     31       3.3534      2.00000
     32       3.7835      2.00000
     33       3.7844      2.00000
     34       4.3208      2.00000
     35       4.4610      2.00000
     36       4.6291      2.00000
     37       4.6298      2.00000
     38       4.9679      2.00000
     39       5.2120      2.00000
     40       5.2121      2.00000
     41       6.1417      2.00000
     42       6.5159      2.00000
     43       6.6897      2.00000
     44       6.8610      2.00000
     45       6.9913      2.00000
     46       6.9928      2.00000
     47       7.8471      2.00000
     48       8.8487      2.00000
     49       8.8502      2.00000
     50       9.1331      2.00000
     51       9.8719      0.00000
     52       9.8761      0.00000
     53      10.0496      0.00000
     54      10.2223      0.00000
     55      10.3796      0.00000
     56      10.3806      0.00000
     57      11.0957      0.00000
     58      11.6409      0.00000
     59      11.9377      0.00000
     60      11.9392      0.00000
     61      11.9623      0.00000
     62      12.0411      0.00000
     63      12.5313      0.00000
     64      13.0993      0.00000
     65      13.2270      0.00000
     66      14.1062      0.00000

[...]

 k-point   116 :      -0.4286    0.4286    0.5000
  band No.  band energies     occupation
      1     -54.1910      2.00000
      2     -53.4257      2.00000
      3     -53.3040      2.00000
      4     -53.2379      2.00000
      5     -53.1063      2.00000
      6     -52.2306      2.00000
      7     -30.2427      2.00000
      8     -30.1762      2.00000
      9     -27.9958      2.00000
     10     -27.4095      2.00000
     11     -27.3682      2.00000
     12     -27.2269      2.00000
     13     -26.7819      2.00000
     14     -26.7395      2.00000
     15     -26.6329      2.00000
     16     -26.5985      2.00000
     17     -26.5824      2.00000
     18     -26.5518      2.00000
     19     -26.4637      2.00000
     20     -26.4591      2.00000
     21     -26.2664      2.00000
     22     -25.9704      2.00000
     23     -23.9082      2.00000
     24     -23.8132      2.00000
     25      -1.6622      2.00000
     26      -1.3236      2.00000
     27       0.5308      2.00000
     28       0.7201      2.00000
     29       1.8889      2.00000
     30       1.9322      2.00000
     31       2.3574      2.00000
     32       2.3788      2.00000
     33       3.4176      2.00000
     34       4.7525      2.00000
     35       4.9412      2.00000
     36       5.4863      2.00000
     37       5.6818      2.00000
     38       6.2980      2.00000
     39       6.3049      2.00000
     40       6.3605      2.00000
     41       6.6651      2.00000
     42       6.8599      2.00000
     43       6.9817      2.00000
     44       7.6812      2.00000
     45       8.2336      2.00000
     46       8.2501      2.00000
     47       8.2723      2.00000
     48       8.7022      2.00000
     49       8.7831      2.00000
     50       9.0371      2.00000
     51       9.2073      2.00000
     52       9.2742      2.00000
     53       9.3332      1.99980
     54       9.8350      0.00000
     55      10.1918      0.00000
     56      10.2103      0.00000
     57      10.8273      0.00000
     58      11.6017      0.00000
     59      11.7088      0.00000
     60      11.7394      0.00000
     61      11.8603      0.00000
     62      11.9380      0.00000
     63      12.1534      0.00000
     64      13.1537      0.00000
     65      13.2766      0.00000
     66      13.7481      0.00000

 soft charge-density along one line, spin component           1
         0         1         2         3         4         5         6         7         8         9
 total charge-density along one line

------------------------ aborting loop because EDIFF is reached ----------------------------------------

  FREE ENERGIE OF THE ION-ELECTRON SYSTEM (eV)
  free  energy   TOTEN  =      -176.06018028 eV

  energy  without entropy=     -176.05780084  energy(sigma->0) =     -176.05899056

 writing wavefunctions