 vasp.6.2.0 18Jan21 (build Jan 05 2022 15:41:44) complex

 executed on             LinuxIFC date 2025.05.07  16:20:49

 INCAR:
   SYSTEM = routine with relax: pwdword
   ICHARG = 2
   NPAR = 6
   KPAR = 2
   NCORE = 2
   ADDGRID = T
   PREC = Acc
   ENCUT = 600
   METAGGA = R2SCAN
   LASPH = .TRUE.
   LMIXTAU = .FALSE.
   ALGO = A
   EDIFF = 1E-9
   NELM = 100
   NELMIN = 6
   IALGO = 38
   LREAL = F
   NSW = 0
   ISIF = -1
   ISMEAR = 0
   SIGMA = 0.02

 POTCAR:    PAW_PBE B 06Sep2000
 POTCAR:    PAW_PBE Mo_sv 02Feb2006
 POTCAR:    PAW_PBE Si 05Jan2001
|           W    W    AA    RRRRR   N    N  II  N    N   GGGG   !!!           |
|           W    W   A  A   R    R  NN   N  II  NN   N  G    G  !!!           |
|           W    W  A    A  R    R  N N  N  II  N N  N  G       !!!           |
|           W WW W  AAAAAA  RRRRR   N  N N  II  N  N N  G  GGG   !            |
|           WW  WW  A    A  R   R   N   NN  II  N   NN  G    G                |
|           W    W  A    A  R    R  N    N  II  N    N   GGGG   !!!           |
|     For optimal performance we recommend to set                             |
|       NCORE = 2 up to number-of-cores-per-socket                            |
|     This setting can greatly improve the performance of VASP for DFT.       |
|     The default, NCORE=1 might be grossly inefficient on modern             |
|     multi-core architectures or massively parallel machines. Do your        |
|     Unfortunately you need to use the default for GW and RPA                |
|     calculations (for HF NCORE is supported but not extensively tested      |
|     yet).                                                                   |

 POTCAR:    PAW_PBE B 06Sep2000
   VRHFIN =B: s2p1

   TITEL  = PAW_PBE B 06Sep2000
   POMASS =   10.811; ZVAL   =    3.000    mass and valenz
   ENMAX  =  318.614; ENMIN  =  238.960 eV

 POTCAR:    PAW_PBE Mo_sv 02Feb2006
   VRHFIN =Mo: 4p5s4d

   TITEL  = PAW_PBE Mo_sv 02Feb2006
   POMASS =   95.940; ZVAL   =   14.000    mass and valenz
   ENMAX  =  242.676; ENMIN  =  182.007 eV

 POTCAR:    PAW_PBE Si 05Jan2001
   VRHFIN =Si: s2p2

   TITEL  = PAW_PBE Si 05Jan2001
   POMASS =   28.085; ZVAL   =    4.000    mass and valenz
   ENMAX  =  245.345; ENMIN  =  184.009 eV

  PAW_PBE B 06Sep2000                   :
  PAW_PBE Mo_sv 02Feb2006               :
  PAW_PBE Si 05Jan2001                  :

 POSCAR: EA80
  positions in direct lattice

 METAGGA = R2SCA    LMAXTAU =  6    LMIXTAU =  F

 ion  position               nearest neighbor table
   1  0.000  0.000  0.000-   3 2.07   5 2.07
   2  0.500  0.500  0.000-   3 2.07   5 2.07
   3  0.250  0.250  0.000-   1 2.07   2 2.07   6 2.20   8 2.20   7 2.20   4 2.20  10 3.11   9 3.11
                             9 3.11  10 3.11
   4  0.000  0.500  0.000-   9 2.20  10 2.20   3 2.20   5 2.20   6 3.11   8 3.11   8 3.11   6 3.11

   5  0.750  0.750  0.000-   1 2.07   2 2.07   8 2.20   6 2.20   4 2.20   7 2.20  10 3.11   9 3.11
                            10 3.11   9 3.11
   6  0.500  0.500  0.500-   5 2.20   3 2.20  10 2.20   9 2.20   7 3.11   4 3.11   7 3.11   4 3.11

   7  0.500  0.000  0.000-  10 2.20   9 2.20   3 2.20   5 2.20   6 3.11   8 3.11   6 3.11   8 3.11

[...]

  10  0.750  0.250  0.500-   4 2.20   7 2.20   8 2.20   6 2.20   5 3.11   3 3.11   5 3.11   3 3.11

  LATTYP: Found a face centered orthorhombic cell.
 ALAT       =     8.2719448793
 B/A-ratio  =     1.0633368032
 C/A-ratio  =     1.0633454948

  Lattice vectors:

 A1 = (   5.3310205027,   0.0000000000,   3.2037701674)
 A2 = (   5.3310205027,   0.0000000000,  -2.8334798326)
 A3 = (   3.4055993800,   4.9711701943,   0.3702903347)

Analysis of symmetry for initial positions (statically):
 Subroutine PRICEL returns following result:

  LATTYP: Found a simple tetragonal cell.
 ALAT       =     4.3979676603
 C/A-ratio  =     0.9404281157

[...]

   2 primitive cells build up your supercell.

 Routine SETGRP: Setting up the symmetry group for a
 face centered orthorhombic supercell.

 Subroutine GETGRP returns: Found  8 space group operations
 (whereof  8 operations were pure point group operations)
 out of a pool of  8 trial point group operations.

The static configuration has the point symmetry D_2h.

Analysis of symmetry for dynamics (positions and initial velocities):
 Subroutine PRICEL returns following result:

  LATTYP: Found a simple tetragonal cell.
 ALAT       =     4.3979676603
 C/A-ratio  =     0.9404281157

  Lattice vectors:

 A1 = (  -3.6282208127,   2.4855850972,   0.0000000000)
 A2 = (   1.7027996900,   2.4855850972,   3.2037701674)
 A3 = (   1.7027996900,   2.4855850972,  -2.8334798326)

   2 primitive cells build up your supercell.

 Routine SETGRP: Setting up the symmetry group for a
 face centered orthorhombic supercell.

 Subroutine GETGRP returns: Found  8 space group operations
 (whereof  8 operations were pure point group operations)
 out of a pool of  8 trial point group operations.

The dynamic configuration has the point symmetry D_2h.

 Subroutine INISYM returns: Found  8 space group operations
 (whereof  8 operations are pure point group operations),
 and found     2 'primitive' translations

                                     Primitive cell

  volume of cell :      79.9978

  direct lattice vectors                    reciprocal lattice vectors
    -3.628220813  2.485585097  0.000000000    -0.187581346  0.128506346  0.000000000
     1.702799690  2.485585097  3.203770167     0.088038090  0.128509634  0.165638329
     1.702799690  2.485585097 -2.833479833     0.099543256  0.145303781 -0.165638329

  length of vectors
     4.397967660  4.397931712  4.135972440     0.227377752  0.227379611  0.241781108

  position of ions in fractional coordinates (direct lattice)
     0.000000000  0.000000000  0.000000000
     0.000000000  0.000000000  0.500000000
     0.500000000  0.000000000  0.500000000
     0.000000000  0.500000000  0.500000000
     0.500000000  0.500000000  0.500000000

  ion indices of the primitive-cell ions
   primitive index   ion index
                 1           1
                 2           3
                 3           4
                 4           8
                 5           9

 KPOINTS: EA

Automatic generation of k-mesh.
 Grid dimensions read from file:
 generate k-points for:    7    7    8

 Generating k-lattice:

  Cartesian coordinates                     Fractional coordinates (reciprocal lattice)
     0.026797335  0.010379076  0.000000000     0.142857143  0.000000000  0.000000000
     0.000000000  0.028737126  0.000000000     0.000000000  0.142857143  0.000000000
     0.011004761  0.016063704  0.020704791    -0.000000000  0.000000000  0.125000000

  Length of vectors
     0.028737126  0.028737126  0.028422451

  Shift w.r.t. Gamma in fractional coordinates (k-lattice)
     0.000000000  0.000000000  0.000000000

 WARNING: IBZKPT: internal override: KBLOWUP is changed to .FALSE.
      ... skipping the blow-up phase ...

 Subroutine IBZKPT returns following result:

 Found    116 irreducible k-points:

 Following reciprocal coordinates:
            Coordinates               Weight
  0.000000  0.000000  0.000000      1.000000
  0.142857  0.000000  0.000000      4.000000
  0.285714  0.000000  0.000000      4.000000
  0.428571  0.000000  0.000000      4.000000
  0.142857  0.142857  0.000000      2.000000
  0.285714  0.142857  0.000000      4.000000
  0.428571  0.142857  0.000000      4.000000
 -0.428571  0.142857  0.000000      4.000000
 -0.285714  0.142857  0.000000      4.000000
 -0.142857  0.142857  0.000000      2.000000
  0.285714  0.285714  0.000000      2.000000
  0.428571  0.285714  0.000000      4.000000
 -0.428571  0.285714  0.000000      4.000000
 -0.285714  0.285714  0.000000      2.000000
  0.428571  0.428571  0.000000      2.000000
 -0.428571  0.428571  0.000000      2.000000
 -0.000000  0.000000  0.125000      2.000000
  0.142857  0.000000  0.125000      4.000000
  0.285714  0.000000  0.125000      4.000000
  0.428571 -0.000000  0.125000      4.000000
 -0.428571  0.000000  0.125000      4.000000
 -0.285714  0.000000  0.125000      4.000000
 -0.142857  0.000000  0.125000      4.000000
  0.142857  0.142857  0.125000      2.000000
  0.285714  0.142857  0.125000      4.000000
  0.428571  0.142857  0.125000      4.000000
 -0.428571  0.142857  0.125000      4.000000
 -0.285714  0.142857  0.125000      4.000000
 -0.142857  0.142857  0.125000      4.000000
  0.285714  0.285714  0.125000      2.000000
  0.428571  0.285714  0.125000      4.000000
 -0.428571  0.285714  0.125000      4.000000
 -0.285714  0.285714  0.125000      4.000000
 -0.142857  0.285714  0.125000      4.000000
  0.428571  0.428571  0.125000      2.000000
 -0.428571  0.428571  0.125000      4.000000
 -0.285714  0.428571  0.125000      4.000000
 -0.142857  0.428571  0.125000      4.000000
 -0.428571 -0.428571  0.125000      2.000000
 -0.285714 -0.428571  0.125000      4.000000
 -0.142857 -0.428571  0.125000      4.000000
 -0.285714 -0.285714  0.125000      2.000000
 -0.142857 -0.285714  0.125000      4.000000
 -0.142857 -0.142857  0.125000      2.000000
 -0.000000  0.000000  0.250000      2.000000
  0.142857  0.000000  0.250000      4.000000
  0.285714  0.000000  0.250000      4.000000
  0.428571  0.000000  0.250000      4.000000
 -0.428571  0.000000  0.250000      4.000000
 -0.285714  0.000000  0.250000      4.000000
 -0.142857  0.000000  0.250000      4.000000
  0.142857  0.142857  0.250000      2.000000
  0.285714  0.142857  0.250000      4.000000
  0.428571  0.142857  0.250000      4.000000
 -0.428571  0.142857  0.250000      4.000000
 -0.285714  0.142857  0.250000      4.000000
 -0.142857  0.142857  0.250000      4.000000
  0.285714  0.285714  0.250000      2.000000
  0.428571  0.285714  0.250000      4.000000
 -0.428571  0.285714  0.250000      4.000000
[...]
  0.142857  0.000000  0.500000      4.000000
  0.285714  0.000000  0.500000      4.000000
  0.428571  0.000000  0.500000      4.000000
  0.142857  0.142857  0.500000      2.000000
  0.285714  0.142857  0.500000      4.000000
  0.428571  0.142857  0.500000      4.000000
 -0.428571  0.142857  0.500000      4.000000
 -0.285714  0.142857  0.500000      4.000000
 -0.142857  0.142857  0.500000      2.000000
  0.285714  0.285714  0.500000      2.000000
  0.428571  0.285714  0.500000      4.000000
 -0.428571  0.285714  0.500000      4.000000
 -0.285714  0.285714  0.500000      2.000000
  0.428571  0.428571  0.500000      2.000000
 -0.428571  0.428571  0.500000      2.000000

 Following cartesian coordinates:
            Coordinates               Weight
  0.000000  0.000000  0.000000      1.000000
  0.026797  0.010379  0.000000      4.000000
  0.053595  0.020758  0.000000      4.000000
  0.080392  0.031137  0.000000      4.000000
  0.026797  0.039116  0.000000      2.000000
  0.053595  0.049495  0.000000      4.000000
  0.080392  0.059874  0.000000      4.000000
 -0.080392 -0.002400  0.000000      4.000000
 -0.053595  0.007979  0.000000      4.000000
 -0.026797  0.018358  0.000000      2.000000
  0.053595  0.078232  0.000000      2.000000
  0.080392  0.088611  0.000000      4.000000
 -0.080392  0.026337  0.000000      4.000000
[...]
  -0.00000000  0.00000000  0.12500000       0.005
   0.14285714  0.00000000  0.12500000       0.010
   0.28571429  0.00000000  0.12500000       0.010
   0.42857143 -0.00000000  0.12500000       0.010
  -0.42857143  0.00000000  0.12500000       0.010
  -0.28571429  0.00000000  0.12500000       0.010
  -0.14285714  0.00000000  0.12500000       0.010
   0.14285714  0.14285714  0.12500000       0.005
   0.28571429  0.14285714  0.12500000       0.010
   0.42857143  0.14285714  0.12500000       0.010
  -0.42857143  0.14285714  0.12500000       0.010
  -0.28571429  0.14285714  0.12500000       0.010
  -0.14285714  0.14285714  0.12500000       0.010
   0.28571429  0.28571429  0.12500000       0.005
   0.42857143  0.28571429  0.12500000       0.010
  -0.42857143  0.28571429  0.12500000       0.010
  -0.28571429  0.28571429  0.12500000       0.010
  -0.14285714  0.28571429  0.12500000       0.010
   0.42857143  0.42857143  0.12500000       0.005
  -0.42857143  0.42857143  0.12500000       0.010
  -0.28571429  0.42857143  0.12500000       0.010
  -0.14285714  0.42857143  0.12500000       0.010
  -0.42857143 -0.42857143  0.12500000       0.005
  -0.28571429 -0.42857143  0.12500000       0.010
  -0.14285714 -0.42857143  0.12500000       0.010
  -0.28571429 -0.28571429  0.12500000       0.005
  -0.14285714 -0.28571429  0.12500000       0.010
  -0.14285714 -0.14285714  0.12500000       0.005
  -0.00000000  0.00000000  0.25000000       0.005
   0.14285714  0.00000000  0.25000000       0.010
   0.28571429  0.00000000  0.25000000       0.010
   0.42857143  0.00000000  0.25000000       0.010
  -0.42857143  0.00000000  0.25000000       0.010
  -0.28571429  0.00000000  0.25000000       0.010
  -0.14285714  0.00000000  0.25000000       0.010
   0.14285714  0.14285714  0.25000000       0.005
   0.28571429  0.14285714  0.25000000       0.010
   0.42857143  0.14285714  0.25000000       0.010
  -0.42857143  0.14285714  0.25000000       0.010
  -0.28571429  0.14285714  0.25000000       0.010
  -0.14285714  0.14285714  0.25000000       0.010
   0.28571429  0.28571429  0.25000000       0.005
   0.42857143  0.28571429  0.25000000       0.010
  -0.42857143  0.28571429  0.25000000       0.010
[...]
   0.14285714  0.00000000  0.50000000       0.010
   0.28571429  0.00000000  0.50000000       0.010
   0.42857143  0.00000000  0.50000000       0.010
   0.14285714  0.14285714  0.50000000       0.005
   0.28571429  0.14285714  0.50000000       0.010
   0.42857143  0.14285714  0.50000000       0.010
  -0.42857143  0.14285714  0.50000000       0.010
  -0.28571429  0.14285714  0.50000000       0.010
  -0.14285714  0.14285714  0.50000000       0.005
   0.28571429  0.28571429  0.50000000       0.005
   0.42857143  0.28571429  0.50000000       0.010
  -0.42857143  0.28571429  0.50000000       0.010
  -0.28571429  0.28571429  0.50000000       0.005
   0.42857143  0.42857143  0.50000000       0.005
  -0.42857143  0.42857143  0.50000000       0.005

 position of ions in fractional coordinates (direct lattice)
   0.00000000  0.00000000  0.00000000
   0.50000000  0.50000000  0.00000000
   0.25000000  0.25000000  0.00000000
   0.00000000  0.50000000  0.00000000
   0.75000000  0.75000000  0.00000000
   0.50000000  0.50000000  0.50000000
   0.50000000  0.00000000  0.00000000
   0.00000000  0.00000000  0.50000000
   0.25000000  0.75000000  0.50000000
   0.75000000  0.25000000  0.50000000

 position of ions in cartesian coordinates  (Angst):
   0.00000000  0.00000000  0.00000000
   1.70279969  2.48558510 -2.83347983
   0.85139985  1.24279255 -1.41673992
  -0.96271056  2.48558510 -1.41673992
   2.55419954  3.72837765 -4.25021975
   1.70279969  2.48558510  0.18514517
   2.66551025  0.00000000 -1.41673992
   0.00000000  0.00000000  3.01862500
  -0.11131072  3.72837765  0.18514517
   3.51691010  1.24279255  0.18514517

 k-point   1 :   0.0000 0.0000 0.0000  plane waves:    5345
 k-point   2 :   0.1429 0.0000 0.0000  plane waves:    5347
 k-point   3 :   0.2857 0.0000 0.0000  plane waves:    5326
 k-point   4 :   0.4286 0.0000 0.0000  plane waves:    5335
 k-point   5 :   0.1429 0.1429 0.0000  plane waves:    5344
 k-point   6 :   0.2857 0.1429 0.0000  plane waves:    5334
 k-point   7 :   0.4286 0.1429 0.0000  plane waves:    5325
 k-point   8 :  -0.4286 0.1429 0.0000  plane waves:    5332
 k-point   9 :  -0.2857 0.1429 0.0000  plane waves:    5337
 k-point  10 :  -0.1429 0.1429 0.0000  plane waves:    5345
 k-point  11 :   0.2857 0.2857 0.0000  plane waves:    5335
 k-point  12 :   0.4286 0.2857 0.0000  plane waves:    5338
 k-point  13 :  -0.4286 0.2857 0.0000  plane waves:    5329
 k-point  14 :  -0.2857 0.2857 0.0000  plane waves:    5324
 k-point  15 :   0.4286 0.4286 0.0000  plane waves:    5319
 k-point  16 :  -0.4286 0.4286 0.0000  plane waves:    5326
 k-point  17 :  -0.0000 0.0000 0.1250  plane waves:    5341
 k-point  18 :   0.1429 0.0000 0.1250  plane waves:    5335
 k-point  19 :   0.2857 0.0000 0.1250  plane waves:    5337
 k-point  20 :   0.4286-0.0000 0.1250  plane waves:    5328
 k-point  21 :  -0.4286 0.0000 0.1250  plane waves:    5330
 k-point  22 :  -0.2857 0.0000 0.1250  plane waves:    5339
 k-point  23 :  -0.1429 0.0000 0.1250  plane waves:    5345
 k-point  24 :   0.1429 0.1429 0.1250  plane waves:    5331
 k-point  25 :   0.2857 0.1429 0.1250  plane waves:    5330
 k-point  26 :   0.4286 0.1429 0.1250  plane waves:    5329
 k-point  27 :  -0.4286 0.1429 0.1250  plane waves:    5339
 k-point  28 :  -0.2857 0.1429 0.1250  plane waves:    5335
 k-point  29 :  -0.1429 0.1429 0.1250  plane waves:    5342
 k-point  30 :   0.2857 0.2857 0.1250  plane waves:    5340
 k-point  31 :   0.4286 0.2857 0.1250  plane waves:    5333
 k-point  32 :  -0.4286 0.2857 0.1250  plane waves:    5340
 k-point  33 :  -0.2857 0.2857 0.1250  plane waves:    5321
 k-point  34 :  -0.1429 0.2857 0.1250  plane waves:    5337
 k-point  35 :   0.4286 0.4286 0.1250  plane waves:    5317
 k-point  36 :  -0.4286 0.4286 0.1250  plane waves:    5343
 k-point  37 :  -0.2857 0.4286 0.1250  plane waves:    5345
 k-point  38 :  -0.1429 0.4286 0.1250  plane waves:    5339
 k-point  39 :  -0.4286-0.4286 0.1250  plane waves:    5347
 k-point  40 :  -0.2857-0.4286 0.1250  plane waves:    5343
 k-point  41 :  -0.1429-0.4286 0.1250  plane waves:    5343
 k-point  42 :  -0.2857-0.2857 0.1250  plane waves:    5345
 k-point  43 :  -0.1429-0.2857 0.1250  plane waves:    5336
 k-point  44 :  -0.1429-0.1429 0.1250  plane waves:    5335
 k-point  45 :  -0.0000 0.0000 0.2500  plane waves:    5318
 k-point  46 :   0.1429 0.0000 0.2500  plane waves:    5327
 k-point  47 :   0.2857 0.0000 0.2500  plane waves:    5334
 k-point  48 :   0.4286 0.0000 0.2500  plane waves:    5339
 k-point  49 :  -0.4286 0.0000 0.2500  plane waves:    5331
 k-point  50 :  -0.2857 0.0000 0.2500  plane waves:    5331
 k-point  51 :  -0.1429 0.0000 0.2500  plane waves:    5331
 k-point  52 :   0.1429 0.1429 0.2500  plane waves:    5339
 k-point  53 :   0.2857 0.1429 0.2500  plane waves:    5348
 k-point  54 :   0.4286 0.1429 0.2500  plane waves:    5333
 k-point  55 :  -0.4286 0.1429 0.2500  plane waves:    5326
 k-point  56 :  -0.2857 0.1429 0.2500  plane waves:    5326
 k-point  57 :  -0.1429 0.1429 0.2500  plane waves:    5321
 k-point  58 :   0.2857 0.2857 0.2500  plane waves:    5343
 k-point  59 :   0.4286 0.2857 0.2500  plane waves:    5334
 k-point  60 :  -0.4286 0.2857 0.2500  plane waves:    5337
[...]
 k-point 102 :   0.1429 0.0000 0.5000  plane waves:    5329
 k-point 103 :   0.2857 0.0000 0.5000  plane waves:    5336
 k-point 104 :   0.4286 0.0000 0.5000  plane waves:    5324
 k-point 105 :   0.1429 0.1429 0.5000  plane waves:    5341
 k-point 106 :   0.2857 0.1429 0.5000  plane waves:    5331
 k-point 107 :   0.4286 0.1429 0.5000  plane waves:    5334
 k-point 108 :  -0.4286 0.1429 0.5000  plane waves:    5343
 k-point 109 :  -0.2857 0.1429 0.5000  plane waves:    5349
 k-point 110 :  -0.1429 0.1429 0.5000  plane waves:    5328
 k-point 111 :   0.2857 0.2857 0.5000  plane waves:    5340
 k-point 112 :   0.4286 0.2857 0.5000  plane waves:    5358
 k-point 113 :  -0.4286 0.2857 0.5000  plane waves:    5361
 k-point 114 :  -0.2857 0.2857 0.5000  plane waves:    5350
 k-point 115 :   0.4286 0.4286 0.5000  plane waves:    5361
 k-point 116 :  -0.4286 0.4286 0.5000  plane waves:    5376

 maximum and minimum number of plane-waves per node :      2714     2625

 maximum number of plane-waves:      5376
 maximum index in each direction:
   IXMAX=   12   IYMAX=   12   IZMAX=   12
   IXMIN=  -12   IYMIN=  -12   IZMIN=  -12

 parallel 3D FFT for wavefunctions:
    minimum data exchange during FFTs selected (reduces bandwidth)
 parallel 3D FFT for charge:
    minimum data exchange during FFTs selected (reduces bandwidth)

 Broyden mixing: mesh for mixing (old mesh)
   NGX = 25   NGY = 25   NGZ = 25
  (NGX  = 96   NGY  = 96   NGZ  = 96)
  gives a total of  15625 points

 initial charge density was supplied:
 charge density of overlapping atoms calculated
 number of electron      98.0000000 magnetization
 keeping initial charge density in first step

 Maximum index for augmentation-charges        19707 (set IRDMAX)

 First call to EWALD:  gamma=   0.326
 Maximum number of real-space cells 3x 3x 3
 Maximum number of reciprocal cells 3x 3x 3

--------------------------------------- Iteration      1(   1)  ---------------------------------------

 eigenvalue-minimisations  : 13932
 total energy-change (2. order) : 0.1154755E+04  (-0.6785077E+04)
 number of electron      98.0000000 magnetization
 augmentation part       98.0000000 magnetization

 Free energy of the ion-electron system (eV)
  alpha Z        PSCENC =       522.16701797
  Ewald energy   TEWEN  =     -7771.43046798
  -Hartree energ DENC   =     -3572.36050294
  -exchange      EXHF   =         0.00000000
  -V(xc)+E(xc)   XCENC  =       470.05974251
  PAW double counting   =      9166.97638771    -9126.13493418
  entropy T*S    EENTRO =        -0.00049513
  eigenvalues    EBANDS =       -56.68874124
  atomic energy  EATOM  =     11522.16744521
  free energy    TOTEN  =      1154.75545193 eV

  energy without entropy =     1154.75594706  energy(sigma->0) =     1154.75569950

[...]

 eigenvalue-minimisations  : 15360
 total energy-change (2. order) :-0.1306562E+04  (-0.1270733E+04)
 number of electron      98.0000000 magnetization
 augmentation part       98.0000000 magnetization

[...]

 eigenvalue-minimisations  :     0
 total energy-change (2. order) : 0.7876224E-09  (-0.1002962E-08)
 number of electron      98.0000001 magnetization
 augmentation part       14.4955848 magnetization

[...]

--------------------------------------- Iteration      1(  36)  ---------------------------------------

 eigenvalue-minimisations  :     0
 total energy-change (2. order) :-0.4019967E-09  (-0.9811092E-09)
 number of electron      98.0000001 magnetization
 augmentation part       14.4955835 magnetization

 Free energy of the ion-electron system (eV)
  alpha Z        PSCENC =       522.16701797
  Ewald energy   TEWEN  =     -7771.43046798
  -Hartree energ DENC   =     -3548.45100960
  -exchange      EXHF   =         0.00000000
  -V(xc)+E(xc)   XCENC  =       484.00615376
  PAW double counting   =     16082.07362970   -16057.61075681
  entropy T*S    EENTRO =        -0.00197901
  eigenvalues    EBANDS =     -1395.12646738
  atomic energy  EATOM  =     11522.16744521
  free energy    TOTEN  =      -162.20643414 eV

  energy without entropy =     -162.20445513  energy(sigma->0) =     -162.20544463

  average scaling for gradient   0.8066

 average (electrostatic) potential at core
  the test charge radii are     0.7672  1.0818  0.9892
  (the norm of the test charge is              1.0000)
       1 -26.0769       2 -26.0769       3 -77.4166       4 -77.5681       5 -77.4166
       6 -77.5794       7 -77.5681       8 -77.5794       9 -82.9714      10 -82.9714

 E-fermi :   8.8088     XC(G=0): -12.2056     alpha+bet :-16.1025

 Fermi energy:         8.8088188974

 k-point     1 :       0.0000    0.0000    0.0000
  band No.  band energies     occupation
      1     -54.6527      2.00000
      2     -53.9166      2.00000
      3     -53.8925      2.00000
      4     -53.8817      2.00000
      5     -53.8370      2.00000
      6     -53.0852      2.00000
      7     -30.3807      2.00000
      8     -30.3690      2.00000
      9     -27.9371      2.00000
     10     -27.9006      2.00000
     11     -27.8592      2.00000
     12     -27.8521      2.00000
     13     -27.7440      2.00000
     14     -27.7207      2.00000
     15     -27.4048      2.00000
     16     -27.3974      2.00000
     17     -27.2183      2.00000
     18     -27.2156      2.00000
     19     -27.1766      2.00000
     20     -27.1699      2.00000
     21     -27.1198      2.00000
     22     -26.6273      2.00000
     23     -24.9902      2.00000
     24     -24.9789      2.00000
     25      -1.7223      2.00000
     26       0.5454      2.00000
     27       1.4772      2.00000
     28       2.2222      2.00000
     29       2.5503      2.00000
     30       2.8554      2.00000
     31       2.9695      2.00000
     32       2.9697      2.00000
     33       4.0707      2.00000
     34       4.1165      2.00000
     35       4.1229      2.00000
     36       4.2772      2.00000
     37       4.3303      2.00000
     38       4.9560      2.00000
     39       4.9589      2.00000
     40       7.6323      2.00000
     41       7.6326      2.00000
     42       7.8030      2.00000
     43       8.2482      2.00000
     44       8.2500      2.00000
     45       8.2521      2.00000
     46       8.4361      2.00000
     47       8.4535      2.00000
     48       8.4559      2.00000
     49       8.5068      2.00000
     50       8.7656      1.99773
     51       9.1081      0.00000
     52       9.1435      0.00000
     53       9.4900      0.00000
     54       9.4970      0.00000
     55       9.5659      0.00000
     56      10.1211      0.00000
     57      10.8185      0.00000
     58      10.8190      0.00000
     59      10.9712      0.00000
     60      11.0373      0.00000

[...]

 k-point   116 :      -0.4286    0.4286    0.5000
  band No.  band energies     occupation
      1     -54.6436      2.00000
      2     -54.0218      2.00000
      3     -53.8929      2.00000
      4     -53.8379      2.00000
      5     -53.7736      2.00000
      6     -53.0960      2.00000
      7     -30.3769      2.00000
      8     -30.3094      2.00000
      9     -28.4566      2.00000
     10     -27.9279      2.00000
     11     -27.8882      2.00000
     12     -27.7499      2.00000
     13     -27.6938      2.00000
     14     -27.4058      2.00000
     15     -27.3989      2.00000
     16     -27.2885      2.00000
     17     -27.2791      2.00000
     18     -27.2153      2.00000
     19     -27.1659      2.00000
     20     -27.1302      2.00000
     21     -27.0945      2.00000
     22     -26.6352      2.00000
     23     -25.0582      2.00000
     24     -24.9905      2.00000
     25      -1.2274      2.00000
     26       0.8199      2.00000
     27       1.5600      2.00000
     28       1.5744      2.00000
     29       2.4341      2.00000
     30       2.7968      2.00000
     31       2.8922      2.00000
     32       2.9329      2.00000
     33       2.9959      2.00000
     34       3.0263      2.00000
     35       3.7215      2.00000
     36       4.8762      2.00000
     37       5.1225      2.00000
     38       6.1390      2.00000
     39       6.1667      2.00000
     40       6.2324      2.00000
     41       7.2302      2.00000
     42       7.2916      2.00000
     43       7.5941      2.00000
     44       7.6783      2.00000
     45       7.7202      2.00000
     46       8.0828      2.00000
     47       8.4293      2.00000
     48       8.4627      2.00000
     49       8.5749      2.00000
     50       8.9339      0.00000
     51       9.1719      0.00000
     52       9.2508      0.00000
     53       9.4416      0.00000
     54       9.6390      0.00000
     55       9.6913      0.00000
     56      10.2883      0.00000
     57      11.0713      0.00000
     58      11.1267      0.00000
     59      11.3219      0.00000
     60      12.2437      0.00000

 soft charge-density along one line, spin component           1
         0         1         2         3         4         5         6         7         8         9
 total charge-density along one line

------------------------ aborting loop because EDIFF is reached ----------------------------------------

  FREE ENERGIE OF THE ION-ELECTRON SYSTEM (eV)
  free  energy   TOTEN  =      -162.20643414 eV

  energy  without entropy=     -162.20445513  energy(sigma->0) =     -162.20544463

 writing wavefunctions