 vasp.6.2.0 18Jan21 (build Jan 05 2022 15:41:44) complex

 executed on             LinuxIFC date 2025.05.07  15:44:51

 INCAR:
   SYSTEM = routine with relax: pwdword
   ICHARG = 2
   NPAR = 6
   KPAR = 2
   NCORE = 2
   ADDGRID = T
   PREC = Acc
   ENCUT = 600
   METAGGA = R2SCAN
   LASPH = .TRUE.
   LMIXTAU = .FALSE.
   ALGO = A
   EDIFF = 1E-9
   NELM = 100
   NELMIN = 6
   IALGO = 38
   LREAL = F
   NSW = 0
   ISIF = -1
   ISMEAR = 0
   SIGMA = 0.02

 POTCAR:    PAW_PBE B 06Sep2000
 POTCAR:    PAW_PBE Mo_sv 02Feb2006
 POTCAR:    PAW_PBE Si 05Jan2001
|           W    W    AA    RRRRR   N    N  II  N    N   GGGG   !!!           |
|           W    W   A  A   R    R  NN   N  II  NN   N  G    G  !!!           |
|           W    W  A    A  R    R  N N  N  II  N N  N  G       !!!           |
|           W WW W  AAAAAA  RRRRR   N  N N  II  N  N N  G  GGG   !            |
|           WW  WW  A    A  R   R   N   NN  II  N   NN  G    G                |
|           W    W  A    A  R    R  N    N  II  N    N   GGGG   !!!           |
|     For optimal performance we recommend to set                             |
|       NCORE = 2 up to number-of-cores-per-socket                            |
|     This setting can greatly improve the performance of VASP for DFT.       |
|     The default, NCORE=1 might be grossly inefficient on modern             |
|     multi-core architectures or massively parallel machines. Do your        |
|     Unfortunately you need to use the default for GW and RPA                |
|     calculations (for HF NCORE is supported but not extensively tested      |
|     yet).                                                                   |

 POTCAR:    PAW_PBE B 06Sep2000
   VRHFIN =B: s2p1

   TITEL  = PAW_PBE B 06Sep2000
   POMASS =   10.811; ZVAL   =    3.000    mass and valenz
   ENMAX  =  318.614; ENMIN  =  238.960 eV

 POTCAR:    PAW_PBE Mo_sv 02Feb2006
   VRHFIN =Mo: 4p5s4d

   TITEL  = PAW_PBE Mo_sv 02Feb2006
   POMASS =   95.940; ZVAL   =   14.000    mass and valenz
   ENMAX  =  242.676; ENMIN  =  182.007 eV

 POTCAR:    PAW_PBE Si 05Jan2001
   VRHFIN =Si: s2p2

   TITEL  = PAW_PBE Si 05Jan2001
   POMASS =   28.085; ZVAL   =    4.000    mass and valenz
   ENMAX  =  245.345; ENMIN  =  184.009 eV

  PAW_PBE B 06Sep2000                   :
  PAW_PBE Mo_sv 02Feb2006               :
  PAW_PBE Si 05Jan2001                  :

 POSCAR: EA60
  positions in direct lattice

 METAGGA = R2SCA    LMAXTAU =  6    LMIXTAU =  F

 ion  position               nearest neighbor table
   1  0.245  0.745  0.990-   9 1.91   7 1.91  12 2.00  10 2.04   6 2.04  11 2.08
   2  0.755  0.255  0.010-   9 1.91   7 1.91  12 2.00  10 2.04   6 2.04  11 2.08
   3  0.745  0.755  0.500-   5 1.91   8 1.91  11 2.00   6 2.04  10 2.04  12 2.08
   4  0.255  0.245  0.500-   5 1.91   8 1.91  11 2.00  10 2.04   6 2.04  12 2.08
   5  0.000  0.000  0.500-   3 1.91   4 1.91  10 2.80  10 2.80  11 2.80  12 2.80   6 2.80  12 2.80
                            11 2.80   6 2.80   9 2.88   9 2.88   7 2.88   7 2.88
   6  0.000  0.000  0.000-   4 2.04   3 2.04   1 2.04   2 2.04   8 2.80   8 2.80   9 2.80   7 2.80
                             5 2.80   7 2.80   9 2.80   5 2.80  11 2.88  11 2.88  12 2.88  12 2.88
   7  0.000  0.500  0.000-   1 1.91   2 1.91  11 2.80  11 2.80   6 2.80  12 2.80  12 2.80   6 2.80
                            10 2.80  10 2.80   8 2.88   8 2.88   5 2.88   5 2.88
   8  0.500  0.500  0.500-   3 1.91   4 1.91   6 2.80   6 2.80  11 2.80  12 2.80  10 2.80  11 2.80
                            12 2.80  10 2.80   7 2.88   7 2.88   9 2.88   9 2.88
   9  0.500  0.000  0.000-   1 1.91   2 1.91  12 2.80  12 2.80  11 2.80   6 2.80  11 2.80  10 2.80
                             6 2.80  10 2.80   5 2.88   5 2.88   8 2.88   8 2.88
  10  0.500  0.500  0.000-   3 2.04   4 2.04   1 2.04   2 2.04   5 2.80   5 2.80   9 2.80   7 2.80
                             8 2.80   9 2.80   7 2.80   8 2.80  12 2.88  12 2.88  11 2.88  11 2.88
  11  0.500  0.000  0.500-   3 2.00   4 2.00   2 2.08   1 2.08   7 2.80   7 2.80   9 2.80   5 2.80
                             9 2.80   8 2.80   5 2.80   8 2.80   6 2.88   6 2.88  10 2.88  10 2.88
  12  0.000  0.500  0.500-   1 2.00   2 2.00   3 2.08   4 2.08   9 2.80   9 2.80   8 2.80   5 2.80
                             7 2.80   5 2.80   8 2.80   7 2.80  10 2.88  10 2.88   6 2.88   6 2.88

  LATTYP: Found a body centered tetragonal cell.
 ALAT       =     5.7650842785
 C/A-ratio  =     1.3277540474

  Lattice vectors:

 A1 = (   4.9400085588,   0.0000000000,  -2.6196857310)
 A2 = (  -1.7879794112,   4.6050856871,  -2.6196857310)
 A3 = (   0.0000000000,   0.0000000000,   5.5916400000)

Analysis of symmetry for initial positions (statically):
 Subroutine PRICEL returns:
 Original cell was already a primitive cell.

 Routine SETGRP: Setting up the symmetry group for a
 body centered tetragonal supercell.

 Subroutine GETGRP returns: Found 16 space group operations
 (whereof  8 operations were pure point group operations)
 out of a pool of 16 trial point group operations.

The static configuration has the point symmetry C_4h.
 The point group associated with its full space group is D_4h.

Analysis of symmetry for dynamics (positions and initial velocities):
 Subroutine PRICEL returns:
 Original cell was already a primitive cell.

 Routine SETGRP: Setting up the symmetry group for a
 body centered tetragonal supercell.

 Subroutine GETGRP returns: Found 16 space group operations
 (whereof  8 operations were pure point group operations)
 out of a pool of 16 trial point group operations.

The dynamic configuration has the point symmetry C_4h.
 The point group associated with its full space group is D_4h.

 Subroutine INISYM returns: Found 16 space group operations
 (whereof  8 operations are pure point group operations),
 and found     1 'primitive' translations

                                     Primitive cell

  volume of cell :     127.2051

  direct lattice vectors                    reciprocal lattice vectors
     4.940008559  0.000000000 -2.619685731     0.202428799  0.078595394  0.000000000
    -1.787979411  4.605085687 -2.619685731     0.000000000  0.217151225  0.000000000
     0.000000000  0.000000000  5.591640000     0.094837979  0.138557418  0.178838409

  length of vectors
     5.591640000  5.591640000  5.591640000     0.217151225  0.217151225  0.245307107

  position of ions in fractional coordinates (direct lattice)
     0.245120000  0.745120000  0.990240000
     0.754880000  0.254880000  0.009760000
     0.745120000  0.754880000  0.500000000
     0.254880000  0.245120000  0.500000000
     0.000000000  0.000000000  0.500000000
     0.000000000  0.000000000  0.000000000
     0.000000000  0.500000000  1.000000000
     0.500000000  0.500000000  0.500000000
     0.500000000  0.000000000  0.000000000
     0.500000000  0.500000000  1.000000000
     0.500000000  0.000000000  0.500000000
     0.000000000  0.500000000  0.500000000

  ion indices of the primitive-cell ions
   primitive index   ion index
                 1           1
                 2           2
                 3           3
                 4           4
                 5           5
                 6           6
                 7           7
                 8           8
                 9           9
                10          10
                11          11
                12          12

 KPOINTS: EA

Automatic generation of k-mesh.
 Grid dimensions read from file:
 generate k-points for:    8    8    9

 Generating k-lattice:

  Cartesian coordinates                     Fractional coordinates (reciprocal lattice)
     0.025303600  0.009824424  0.000000000     0.125000000  0.000000000  0.000000000
     0.000000000  0.027143903  0.000000000     0.000000000  0.125000000  0.000000000
     0.010537553  0.015395269  0.019870934     0.000000000  0.000000000  0.111111111

  Length of vectors
     0.027143903  0.027143903  0.027256345

  Shift w.r.t. Gamma in fractional coordinates (k-lattice)
     0.000000000  0.000000000  0.000000000

 WARNING: IBZKPT: internal override: KBLOWUP is changed to .FALSE.
      ... skipping the blow-up phase ...

 Subroutine IBZKPT returns following result:

 Found    165 irreducible k-points:

 Following reciprocal coordinates:
            Coordinates               Weight
  0.000000  0.000000  0.000000      1.000000
  0.125000  0.000000  0.000000      4.000000
  0.250000  0.000000  0.000000      4.000000
  0.375000  0.000000  0.000000      4.000000
  0.500000  0.000000  0.000000      2.000000
  0.125000  0.125000  0.000000      2.000000
  0.250000  0.125000  0.000000      4.000000
  0.375000  0.125000  0.000000      4.000000
  0.500000  0.125000  0.000000      4.000000
 -0.375000  0.125000  0.000000      4.000000
 -0.250000  0.125000  0.000000      4.000000
 -0.125000  0.125000  0.000000      2.000000
  0.250000  0.250000  0.000000      2.000000
  0.375000  0.250000  0.000000      4.000000
  0.500000  0.250000  0.000000      4.000000
 -0.375000  0.250000  0.000000      4.000000
 -0.250000  0.250000  0.000000      2.000000
  0.375000  0.375000  0.000000      2.000000
  0.500000  0.375000  0.000000      4.000000
 -0.375000  0.375000  0.000000      2.000000
  0.500000  0.500000  0.000000      1.000000
  0.000000  0.000000  0.111111      2.000000
  0.125000 -0.000000  0.111111      4.000000
  0.250000  0.000000  0.111111      4.000000
  0.375000 -0.000000  0.111111      4.000000
  0.500000 -0.000000  0.111111      4.000000
 -0.375000  0.000000  0.111111      4.000000
 -0.250000  0.000000  0.111111      4.000000
 -0.125000  0.000000  0.111111      4.000000
  0.125000  0.125000  0.111111      2.000000
  0.250000  0.125000  0.111111      4.000000
  0.375000  0.125000  0.111111      4.000000
  0.500000  0.125000  0.111111      4.000000
 -0.375000  0.125000  0.111111      4.000000
 -0.250000  0.125000  0.111111      4.000000
 -0.125000  0.125000  0.111111      4.000000
  0.250000  0.250000  0.111111      2.000000
  0.375000  0.250000  0.111111      4.000000
  0.500000  0.250000  0.111111      4.000000
 -0.375000  0.250000  0.111111      4.000000
 -0.250000  0.250000  0.111111      4.000000
 -0.125000  0.250000  0.111111      4.000000
  0.375000  0.375000  0.111111      2.000000
  0.500000  0.375000  0.111111      4.000000
 -0.375000  0.375000  0.111111      4.000000
 -0.250000  0.375000  0.111111      4.000000
 -0.125000  0.375000  0.111111      4.000000
  0.500000  0.500000  0.111111      2.000000
 -0.375000  0.500000  0.111111      4.000000
 -0.250000  0.500000  0.111111      4.000000
 -0.125000  0.500000  0.111111      4.000000
 -0.375000 -0.375000  0.111111      2.000000
 -0.250000 -0.375000  0.111111      4.000000
 -0.125000 -0.375000  0.111111      4.000000
 -0.250000 -0.250000  0.111111      2.000000
 -0.125000 -0.250000  0.111111      4.000000
 -0.125000 -0.125000  0.111111      2.000000
 -0.000000  0.000000  0.222222      2.000000
  0.125000  0.000000  0.222222      4.000000
  0.250000 -0.000000  0.222222      4.000000
[...]
  0.375000  0.375000  0.444444      2.000000
  0.500000  0.375000  0.444444      4.000000
 -0.375000  0.375000  0.444444      4.000000
[...]
  -0.37500000  0.12500000  0.11111111       0.007
  -0.25000000  0.12500000  0.11111111       0.007
  -0.12500000  0.12500000  0.11111111       0.007
   0.25000000  0.25000000  0.11111111       0.003
   0.37500000  0.25000000  0.11111111       0.007
   0.50000000  0.25000000  0.11111111       0.007
  -0.37500000  0.25000000  0.11111111       0.007
  -0.25000000  0.25000000  0.11111111       0.007
  -0.12500000  0.25000000  0.11111111       0.007
   0.37500000  0.37500000  0.11111111       0.003
   0.50000000  0.37500000  0.11111111       0.007
  -0.37500000  0.37500000  0.11111111       0.007
  -0.25000000  0.37500000  0.11111111       0.007
  -0.12500000  0.37500000  0.11111111       0.007
   0.50000000  0.50000000  0.11111111       0.003
  -0.37500000  0.50000000  0.11111111       0.007
  -0.25000000  0.50000000  0.11111111       0.007
  -0.12500000  0.50000000  0.11111111       0.007
  -0.37500000 -0.37500000  0.11111111       0.003
  -0.25000000 -0.37500000  0.11111111       0.007
  -0.12500000 -0.37500000  0.11111111       0.007
  -0.25000000 -0.25000000  0.11111111       0.003
  -0.12500000 -0.25000000  0.11111111       0.007
  -0.12500000 -0.12500000  0.11111111       0.003
  -0.00000000  0.00000000  0.22222222       0.003
   0.12500000  0.00000000  0.22222222       0.007
   0.25000000 -0.00000000  0.22222222       0.007
[...]
   0.37500000  0.37500000  0.44444444       0.003
   0.50000000  0.37500000  0.44444444       0.007
  -0.37500000  0.37500000  0.44444444       0.007
  -0.25000000  0.37500000  0.44444444       0.007
  -0.12500000  0.37500000  0.44444444       0.007
   0.50000000  0.50000000  0.44444444       0.003
  -0.37500000  0.50000000  0.44444444       0.007
  -0.25000000  0.50000000  0.44444444       0.007
  -0.12500000  0.50000000  0.44444444       0.007
  -0.37500000 -0.37500000  0.44444444       0.003
  -0.25000000 -0.37500000  0.44444444       0.007
  -0.12500000 -0.37500000  0.44444444       0.007
  -0.25000000 -0.25000000  0.44444444       0.003
  -0.12500000 -0.25000000  0.44444444       0.007
  -0.12500000 -0.12500000  0.44444444       0.003

 position of ions in fractional coordinates (direct lattice)
   0.24512000  0.74512000  0.99024000
   0.75488000  0.25488000  0.00976000
   0.74512000  0.75488000  0.50000000
   0.25488000  0.24512000  0.50000000
   0.00000000  0.00000000  0.50000000
   0.00000000  0.00000000  0.00000000
   0.00000000  0.50000000  0.00000000
   0.50000000  0.50000000  0.50000000
   0.50000000  0.00000000  0.00000000
   0.50000000  0.50000000  0.00000000
   0.50000000  0.00000000  0.50000000
   0.00000000  0.50000000  0.50000000

 position of ions in cartesian coordinates  (Angst):
  -0.12136432  3.43134145  2.94294800
   3.27339347  1.17374424 -2.59067946
   2.33118928  3.47628708 -1.13370860
   0.82083987  1.12879860  1.48597713
   0.00000000  0.00000000  2.79582000
   0.00000000  0.00000000  0.00000000
  -0.89398971  2.30254284 -1.30984287
   1.57601457  2.30254284  0.17613427
   2.47000428  0.00000000 -1.30984287
   1.57601457  2.30254284 -2.61968573
   2.47000428  0.00000000  1.48597713
  -0.89398971  2.30254284  1.48597713

 k-point   1 :   0.0000 0.0000 0.0000  plane waves:    4267
 k-point   2 :   0.1250 0.0000 0.0000  plane waves:    4244
 k-point   3 :   0.2500 0.0000 0.0000  plane waves:    4238
 k-point   4 :   0.3750 0.0000 0.0000  plane waves:    4240
 k-point   5 :   0.5000 0.0000 0.0000  plane waves:    4252
 k-point   6 :   0.1250 0.1250 0.0000  plane waves:    4239
 k-point   7 :   0.2500 0.1250 0.0000  plane waves:    4241
 k-point   8 :   0.3750 0.1250 0.0000  plane waves:    4241
 k-point   9 :   0.5000 0.1250 0.0000  plane waves:    4241
 k-point  10 :  -0.3750 0.1250 0.0000  plane waves:    4247
 k-point  11 :  -0.2500 0.1250 0.0000  plane waves:    4245
 k-point  12 :  -0.1250 0.1250 0.0000  plane waves:    4239
 k-point  13 :   0.2500 0.2500 0.0000  plane waves:    4246
 k-point  14 :   0.3750 0.2500 0.0000  plane waves:    4245
 k-point  15 :   0.5000 0.2500 0.0000  plane waves:    4237
 k-point  16 :  -0.3750 0.2500 0.0000  plane waves:    4243
 k-point  17 :  -0.2500 0.2500 0.0000  plane waves:    4248
 k-point  18 :   0.3750 0.3750 0.0000  plane waves:    4244
 k-point  19 :   0.5000 0.3750 0.0000  plane waves:    4247
 k-point  20 :  -0.3750 0.3750 0.0000  plane waves:    4238
 k-point  21 :   0.5000 0.5000 0.0000  plane waves:    4252
 k-point  22 :   0.0000 0.0000 0.1111  plane waves:    4243
 k-point  23 :   0.1250-0.0000 0.1111  plane waves:    4241
 k-point  24 :   0.2500 0.0000 0.1111  plane waves:    4243
 k-point  25 :   0.3750-0.0000 0.1111  plane waves:    4241
 k-point  26 :   0.5000-0.0000 0.1111  plane waves:    4243
 k-point  27 :  -0.3750 0.0000 0.1111  plane waves:    4248
 k-point  28 :  -0.2500 0.0000 0.1111  plane waves:    4232
 k-point  29 :  -0.1250 0.0000 0.1111  plane waves:    4249
 k-point  30 :   0.1250 0.1250 0.1111  plane waves:    4252
 k-point  31 :   0.2500 0.1250 0.1111  plane waves:    4240
 k-point  32 :   0.3750 0.1250 0.1111  plane waves:    4235
 k-point  33 :   0.5000 0.1250 0.1111  plane waves:    4243
 k-point  34 :  -0.3750 0.1250 0.1111  plane waves:    4249
 k-point  35 :  -0.2500 0.1250 0.1111  plane waves:    4247
 k-point  36 :  -0.1250 0.1250 0.1111  plane waves:    4245
 k-point  37 :   0.2500 0.2500 0.1111  plane waves:    4245
 k-point  38 :   0.3750 0.2500 0.1111  plane waves:    4230
 k-point  39 :   0.5000 0.2500 0.1111  plane waves:    4236
 k-point  40 :  -0.3750 0.2500 0.1111  plane waves:    4248
 k-point  41 :  -0.2500 0.2500 0.1111  plane waves:    4244
 k-point  42 :  -0.1250 0.2500 0.1111  plane waves:    4246
 k-point  43 :   0.3750 0.3750 0.1111  plane waves:    4232
 k-point  44 :   0.5000 0.3750 0.1111  plane waves:    4250
 k-point  45 :  -0.3750 0.3750 0.1111  plane waves:    4241
 k-point  46 :  -0.2500 0.3750 0.1111  plane waves:    4238
 k-point  47 :  -0.1250 0.3750 0.1111  plane waves:    4241
 k-point  48 :   0.5000 0.5000 0.1111  plane waves:    4246
 k-point  49 :  -0.3750 0.5000 0.1111  plane waves:    4246
 k-point  50 :  -0.2500 0.5000 0.1111  plane waves:    4244
 k-point  51 :  -0.1250 0.5000 0.1111  plane waves:    4244
 k-point  52 :  -0.3750-0.3750 0.1111  plane waves:    4251
 k-point  53 :  -0.2500-0.3750 0.1111  plane waves:    4256
 k-point  54 :  -0.1250-0.3750 0.1111  plane waves:    4247
 k-point  55 :  -0.2500-0.2500 0.1111  plane waves:    4253
 k-point  56 :  -0.1250-0.2500 0.1111  plane waves:    4244
 k-point  57 :  -0.1250-0.1250 0.1111  plane waves:    4245
 k-point  58 :  -0.0000 0.0000 0.2222  plane waves:    4244
 k-point  59 :   0.1250 0.0000 0.2222  plane waves:    4250
 k-point  60 :   0.2500-0.0000 0.2222  plane waves:    4241
[...]
 k-point 151 :   0.3750 0.3750 0.4444  plane waves:    4251
 k-point 152 :   0.5000 0.3750 0.4444  plane waves:    4262
 k-point 153 :  -0.3750 0.3750 0.4444  plane waves:    4263
 k-point 154 :  -0.2500 0.3750 0.4444  plane waves:    4258
 k-point 155 :  -0.1250 0.3750 0.4444  plane waves:    4245
 k-point 156 :   0.5000 0.5000 0.4444  plane waves:    4254
 k-point 157 :  -0.3750 0.5000 0.4444  plane waves:    4249
 k-point 158 :  -0.2500 0.5000 0.4444  plane waves:    4259
 k-point 159 :  -0.1250 0.5000 0.4444  plane waves:    4250
 k-point 160 :  -0.3750-0.3750 0.4444  plane waves:    4259
 k-point 161 :  -0.2500-0.3750 0.4444  plane waves:    4257
 k-point 162 :  -0.1250-0.3750 0.4444  plane waves:    4247
 k-point 163 :  -0.2500-0.2500 0.4444  plane waves:    4256
 k-point 164 :  -0.1250-0.2500 0.4444  plane waves:    4243
 k-point 165 :  -0.1250-0.1250 0.4444  plane waves:    4243

 maximum and minimum number of plane-waves per node :      2169     2088

 maximum number of plane-waves:      4267
 maximum index in each direction:
   IXMAX=   11   IYMAX=   11   IZMAX=   11
   IXMIN=  -11   IYMIN=  -11   IZMIN=  -11

 parallel 3D FFT for wavefunctions:
    minimum data exchange during FFTs selected (reduces bandwidth)
 parallel 3D FFT for charge:
    minimum data exchange during FFTs selected (reduces bandwidth)

 Broyden mixing: mesh for mixing (old mesh)
   NGX = 23   NGY = 23   NGZ = 23
  (NGX  = 96   NGY  = 96   NGZ  = 96)
  gives a total of  12167 points

 initial charge density was supplied:
 charge density of overlapping atoms calculated
 number of electron     104.0000000 magnetization
 keeping initial charge density in first step

 Maximum index for augmentation-charges        24631 (set IRDMAX)

 First call to EWALD:  gamma=   0.352
 Maximum number of real-space cells 3x 3x 3
 Maximum number of reciprocal cells 3x 3x 3

--------------------------------------- Iteration      1(   1)  ---------------------------------------

 eigenvalue-minimisations  : 21780
 total energy-change (2. order) : 0.1116110E+04  (-0.7142288E+04)
 number of electron     104.0000000 magnetization
 augmentation part      104.0000000 magnetization

 Free energy of the ion-electron system (eV)
  alpha Z        PSCENC =       734.47671845
  Ewald energy   TEWEN  =    -10171.46510229
  -Hartree energ DENC   =     -2141.03977066
  -exchange      EXHF   =         0.00000000
  -V(xc)+E(xc)   XCENC  =       495.35004135
  PAW double counting   =      9250.47132855    -9210.50234729
  entropy T*S    EENTRO =        -0.00046993
  eigenvalues    EBANDS =       494.31318732
  atomic energy  EATOM  =     11664.50664672
  free energy    TOTEN  =      1116.11023224 eV

  energy without entropy =     1116.11070217  energy(sigma->0) =     1116.11046721

[...]

 eigenvalue-minimisations  : 23958
 total energy-change (2. order) :-0.1303739E+04  (-0.1273849E+04)
 number of electron     104.0000000 magnetization
 augmentation part      104.0000000 magnetization

[...]

 eigenvalue-minimisations  :     0
 total energy-change (2. order) :-0.1424269E-08  (-0.5253190E-11)
 number of electron     104.0000001 magnetization
 augmentation part       14.4172277 magnetization

[...]

 eigenvalue-minimisations  :     0
 total energy-change (2. order) : 0.1060471E-08  (-0.1044163E-10)
 number of electron     104.0000001 magnetization
 augmentation part       14.4172276 magnetization

[...]

--------------------------------------- Iteration      1(  35)  ---------------------------------------

 eigenvalue-minimisations  :     0
 total energy-change (2. order) : 0.8822099E-09  ( 0.2168971E-10)
 number of electron     104.0000001 magnetization
 augmentation part       14.4172269 magnetization

 Free energy of the ion-electron system (eV)
  alpha Z        PSCENC =       734.47671845
  Ewald energy   TEWEN  =    -10171.46510229
  -Hartree energ DENC   =     -2009.44804704
  -exchange      EXHF   =         0.00000000
  -V(xc)+E(xc)   XCENC  =       506.70388824
  PAW double counting   =     15621.16791084   -15604.34384046
  entropy T*S    EENTRO =        -0.00117228
  eigenvalues    EBANDS =      -933.11813992
  atomic energy  EATOM  =     11664.50664672
  free energy    TOTEN  =      -191.52113773 eV

  energy without entropy =     -191.51996545  energy(sigma->0) =     -191.52055159

  average scaling for gradient   1.2039

 average (electrostatic) potential at core
  the test charge radii are     0.7672  1.0818  0.9892
  (the norm of the test charge is              1.0000)
       1 -20.2950       2 -20.2950       3 -20.2950       4 -20.2950       5 -72.9952
       6 -73.0490       7 -72.9952       8 -72.9952       9 -72.9952      10 -73.0490
      11 -80.0596      12 -80.0596

 E-fermi :  13.4141     XC(G=0): -14.7038     alpha+bet :-21.9984

 Fermi energy:        13.4141419462

 k-point     1 :       0.0000    0.0000    0.0000
  band No.  band energies     occupation
      1     -49.4048      2.00000
      2     -49.2639      2.00000
      3     -49.1826      2.00000
      4     -49.1826      2.00000
      5     -49.1136      2.00000
      6     -49.1091      2.00000
      7     -23.6385      2.00000
      8     -23.6385      2.00000
      9     -23.4195      2.00000
     10     -23.3923      2.00000
     11     -23.3922      2.00000
     12     -23.3663      2.00000
     13     -23.0306      2.00000
     14     -22.9881      2.00000
     15     -22.6746      2.00000
     16     -22.6746      2.00000
     17     -22.4838      2.00000
     18     -22.4837      2.00000
     19     -22.3033      2.00000
     20     -22.1895      2.00000
     21     -22.1894      2.00000
     22     -22.1817      2.00000
     23     -22.1357      2.00000
     24     -21.9604      2.00000
     25      -0.9981      2.00000
     26       0.8690      2.00000
     27       3.3186      2.00000
     28       5.5805      2.00000
     29       5.5805      2.00000
     30       5.7985      2.00000
     31       6.7459      2.00000
     32       6.7460      2.00000
     33       7.0817      2.00000
     34       7.1629      2.00000
     35       7.3443      2.00000
     36       7.3444      2.00000
     37       7.5987      2.00000
     38       8.7007      2.00000
     39       8.7007      2.00000
     40       8.7672      2.00000
     41       9.6772      2.00000
     42       9.8683      2.00000
     43       9.8683      2.00000
     44      10.7996      2.00000
     45      10.8333      2.00000
     46      12.1167      2.00000
     47      12.7210      2.00000
     48      12.7211      2.00000
     49      12.9056      2.00000
     50      12.9056      2.00000
     51      13.3419      2.00000
     52      14.0681      0.00000
     53      14.5293      0.00000
     54      14.7650      0.00000
     55      14.9903      0.00000
     56      14.9903      0.00000
     57      15.3748      0.00000
     58      15.7119      0.00000
     59      16.3156      0.00000
     60      16.3684      0.00000
     61      16.3688      0.00000
     62      16.7640      0.00000
     63      16.8038      0.00000
     64      16.8040      0.00000
     65      17.8345      0.00000
     66      18.9114      0.00000

[...]

 k-point   165 :      -0.1250   -0.1250    0.4444
  band No.  band energies     occupation
      1     -49.3522      2.00000
      2     -49.2764      2.00000
      3     -49.1830      2.00000
      4     -49.1708      2.00000
      5     -49.1589      2.00000
      6     -49.1179      2.00000
      7     -23.6027      2.00000
      8     -23.3969      2.00000
      9     -23.3783      2.00000
     10     -23.3114      2.00000
     11     -23.1985      2.00000
     12     -23.0669      2.00000
     13     -22.9647      2.00000
     14     -22.8610      2.00000
     15     -22.8229      2.00000
     16     -22.6786      2.00000
     17     -22.6716      2.00000
     18     -22.5354      2.00000
     19     -22.4824      2.00000
     20     -22.4653      2.00000
     21     -22.3535      2.00000
     22     -22.2811      2.00000
     23     -22.1666      2.00000
     24     -22.0343      2.00000
     25       0.1107      2.00000
     26       1.3426      2.00000
     27       2.7349      2.00000
     28       3.3937      2.00000
     29       4.9937      2.00000
     30       6.1242      2.00000
     31       6.2772      2.00000
     32       6.8085      2.00000
     33       6.9040      2.00000
     34       8.1082      2.00000
     35       8.3270      2.00000
     36       8.6192      2.00000
     37       8.8299      2.00000
     38       8.8886      2.00000
     39       9.0349      2.00000
     40       9.2388      2.00000
     41      10.1478      2.00000
     42      10.1634      2.00000
     43      10.4028      2.00000
     44      10.5887      2.00000
     45      11.0878      2.00000
     46      11.5985      2.00000
     47      11.8105      2.00000
     48      12.1518      2.00000
     49      12.7062      2.00000
     50      12.9499      2.00000
     51      13.2033      2.00000
     52      13.2188      2.00000
     53      13.7241      0.00000
     54      13.7542      0.00000
     55      14.2740      0.00000
     56      14.3278      0.00000
     57      15.0811      0.00000
     58      15.1525      0.00000
     59      15.1733      0.00000
     60      15.5898      0.00000
     61      15.9477      0.00000
     62      16.2593      0.00000
     63      16.5538      0.00000
     64      17.0018      0.00000
     65      17.1284      0.00000
     66      17.9308      0.00000

 soft charge-density along one line, spin component           1
         0         1         2         3         4         5         6         7         8         9
 total charge-density along one line

------------------------ aborting loop because EDIFF is reached ----------------------------------------

  FREE ENERGIE OF THE ION-ELECTRON SYSTEM (eV)
  free  energy   TOTEN  =      -191.52113773 eV

  energy  without entropy=     -191.51996545  energy(sigma->0) =     -191.52055159

 writing wavefunctions