 vasp.6.2.0 18Jan21 (build Jan 05 2022 15:41:44) complex

 executed on             LinuxIFC date 2025.05.07  15:06:29

 INCAR:
   SYSTEM = routine with relax: pwdword
   ICHARG = 2
   NPAR = 6
   KPAR = 2
   NCORE = 2
   ADDGRID = T
   PREC = Acc
   ENCUT = 600
   METAGGA = R2SCAN
   LASPH = .TRUE.
   LMIXTAU = .FALSE.
   ALGO = A
   EDIFF = 1E-9
   NELM = 100
   NELMIN = 6
   IALGO = 38
   LREAL = F
   NSW = 0
   ISIF = -1
   ISMEAR = 0
   SIGMA = 0.02
   SYMPREC = 1E-4

 POTCAR:    PAW_PBE B 06Sep2000
 POTCAR:    PAW_PBE Mo_sv 02Feb2006
 POTCAR:    PAW_PBE Si 05Jan2001
|           W    W    AA    RRRRR   N    N  II  N    N   GGGG   !!!           |
|           W    W   A  A   R    R  NN   N  II  NN   N  G    G  !!!           |
|           W    W  A    A  R    R  N N  N  II  N N  N  G       !!!           |
|           W WW W  AAAAAA  RRRRR   N  N N  II  N  N N  G  GGG   !            |
|           WW  WW  A    A  R   R   N   NN  II  N   NN  G    G                |
|           W    W  A    A  R    R  N    N  II  N    N   GGGG   !!!           |
|     For optimal performance we recommend to set                             |
|       NCORE = 2 up to number-of-cores-per-socket                            |
|     This setting can greatly improve the performance of VASP for DFT.       |
|     The default, NCORE=1 might be grossly inefficient on modern             |
|     multi-core architectures or massively parallel machines. Do your        |
|     Unfortunately you need to use the default for GW and RPA                |
|     calculations (for HF NCORE is supported but not extensively tested      |
|     yet).                                                                   |

 POTCAR:    PAW_PBE B 06Sep2000
   VRHFIN =B: s2p1

   TITEL  = PAW_PBE B 06Sep2000
   POMASS =   10.811; ZVAL   =    3.000    mass and valenz
   ENMAX  =  318.614; ENMIN  =  238.960 eV

 POTCAR:    PAW_PBE Mo_sv 02Feb2006
   VRHFIN =Mo: 4p5s4d

   TITEL  = PAW_PBE Mo_sv 02Feb2006
   POMASS =   95.940; ZVAL   =   14.000    mass and valenz
   ENMAX  =  242.676; ENMIN  =  182.007 eV

 POTCAR:    PAW_PBE Si 05Jan2001
   VRHFIN =Si: s2p2

   TITEL  = PAW_PBE Si 05Jan2001
   POMASS =   28.085; ZVAL   =    4.000    mass and valenz
   ENMAX  =  245.345; ENMIN  =  184.009 eV

  PAW_PBE B 06Sep2000                   :
  PAW_PBE Mo_sv 02Feb2006               :
  PAW_PBE Si 05Jan2001                  :

 POSCAR: EA40
  positions in direct lattice

 METAGGA = R2SCA    LMAXTAU =  6    LMIXTAU =  F

 ion  position               nearest neighbor table
   1  0.500  0.500  0.500-  11 1.47  14 1.47   7 2.53  15 2.53
   2  0.000  0.000  0.500-   9 1.47  16 1.47  15 2.53   7 2.53
   3  0.000  0.500  0.000-   5 1.47  12 1.47  10 2.53  13 2.53
   4  0.500  0.000  0.000-   6 1.47   8 1.47  10 2.53  13 2.53
   5  0.199  0.699  0.218-   3 1.47   7 2.66  15 2.66  14 2.77   9 2.77   6 2.80  13 2.88  12 2.95
                            10 2.97  17 3.22  18 3.22   8 3.22
   6  0.519  0.019  0.218-   4 1.47   7 2.66  15 2.66  11 2.77  16 2.77   5 2.80  13 2.88   8 2.95
                            10 2.97  17 3.22  18 3.22  12 3.22
   7  0.639  0.861  0.500-   2 2.53   1 2.53   6 2.66   8 2.66   5 2.66  12 2.66   9 2.88  11 2.88
                            16 2.97  14 2.97  15 3.19
   8  0.481  0.981  0.782-   4 1.47   7 2.66  15 2.66  14 2.77   9 2.77  12 2.80  10 2.88   6 2.95
                            13 2.97  17 3.22  18 3.22   5 3.22
   9  0.019  0.801  0.500-   2 1.47  13 2.66  10 2.66   5 2.77   8 2.77  11 2.80   7 2.88  16 2.95
                            15 2.97  18 3.22  17 3.22  14 3.22
  10  0.861  0.361  0.222-   3 2.53   4 2.53  11 2.66  16 2.66  14 2.66   9 2.66  12 2.88   8 2.88
                             5 2.97   6 2.97  13 3.19
  11  0.699  0.481  0.500-   1 1.47  10 2.66  13 2.66  12 2.77   6 2.77   9 2.80   7 2.88  14 2.95
                            15 2.97  18 3.22  17 3.22  16 3.22
  12  0.801  0.301  0.782-   3 1.47  15 2.66   7 2.66  11 2.77  16 2.77   8 2.80  10 2.88   5 2.95
                            13 2.97  17 3.22  18 3.22   6 3.22
  13  0.139  0.639  0.778-   3 2.53   4 2.53   9 2.66  14 2.66  11 2.66  16 2.66   5 2.88   6 2.88
                            12 2.97   8 2.97  10 3.19
  14  0.301  0.519  0.500-   1 1.47  13 2.66  10 2.66   5 2.77   8 2.77  16 2.80  15 2.88  11 2.95
                             7 2.97  17 3.22  18 3.22   9 3.22
  15  0.361  0.139  0.500-   2 2.53   1 2.53   6 2.66   8 2.66  12 2.66   5 2.66  16 2.88  14 2.88
                             9 2.97  11 2.97   7 3.19
  16  0.981  0.199  0.500-   2 1.47  10 2.66  13 2.66  12 2.77   6 2.77  14 2.80  15 2.88   9 2.95
                             7 2.97  17 3.22  18 3.22  11 3.22
  17  0.250  0.250  0.000-   6 3.22   8 3.22   5 3.22  12 3.22  16 3.22  14 3.22   9 3.22  11 3.22

  18  0.750  0.750  0.000-   6 3.22   8 3.22   5 3.22  12 3.22   9 3.22  11 3.22  16 3.22  14 3.22

  LATTYP: Found a body centered tetragonal cell.
 ALAT       =     8.0897810354
 C/A-ratio  =     1.0808727336

  Lattice vectors:

 A1 = (   6.6924082625,   0.0000000000,  -2.6548475862)
 A2 = (  -3.0864501019,   5.9381945169,  -2.6548475862)
 A3 = (   0.0000000000,   0.0000000000,   7.1997600000)

Analysis of symmetry for initial positions (statically):
 Subroutine PRICEL returns:
 Original cell was already a primitive cell.

 Routine SETGRP: Setting up the symmetry group for a
 body centered tetragonal supercell.

 Subroutine GETGRP returns: Found 16 space group operations
 (whereof  8 operations were pure point group operations)
 out of a pool of 16 trial point group operations.

The static configuration has the point symmetry C_4h.
 The point group associated with its full space group is D_4h.

Analysis of symmetry for dynamics (positions and initial velocities):
 Subroutine PRICEL returns:
 Original cell was already a primitive cell.

 Routine SETGRP: Setting up the symmetry group for a
 body centered tetragonal supercell.

 Subroutine GETGRP returns: Found 16 space group operations
 (whereof  8 operations were pure point group operations)
 out of a pool of 16 trial point group operations.

The dynamic configuration has the point symmetry C_4h.
 The point group associated with its full space group is D_4h.

 Subroutine INISYM returns: Found 16 space group operations
 (whereof  8 operations are pure point group operations),
 and found     1 'primitive' translations

                                     Primitive cell

  volume of cell :     286.1244

  direct lattice vectors                    reciprocal lattice vectors
     6.692408262  0.000000000 -2.654847586     0.149423042  0.077664476  0.000000000
    -3.086450102  5.938194517 -2.654847586     0.000000000  0.168401355  0.000000000
     0.000000000  0.000000000  7.199760000     0.055098420  0.090734590  0.138893519

  length of vectors
     7.199760000  7.199760000  7.199760000     0.168401355  0.168401355  0.174814220

  position of ions in fractional coordinates (direct lattice)
     0.500000000  0.500000000  0.500000000
     0.000000000  0.000000000  0.500000000
     0.000000000  0.500000000  1.000000000
     0.500000000  0.000000000  0.000000000
     0.198850000  0.698850000  0.218280000
     0.519430000  0.019430000  0.218280000
     0.639240000  0.860760000  0.500000000
     0.480570000  0.980570000  0.781720000
     0.019430000  0.801150000  0.500000000
     0.860760000  0.360760000  0.221520000
     0.698850000  0.480570000  0.500000000
     0.801150000  0.301150000  0.781720000
     0.139240000  0.639240000  0.778480000
     0.301150000  0.519430000  0.500000000
     0.360760000  0.139240000  0.500000000
     0.980570000  0.198850000  0.500000000
     0.250000000  0.250000000  1.000000000
     0.750000000  0.750000000  1.000000000

  ion indices of the primitive-cell ions
   primitive index   ion index
                 1           1
                 2           2
                 3           3
                 4           4
                 5           5
                 6           6
                 7           7
                 8           8
                 9           9
                10          10
                11          11
                12          12
                13          13
                14          14
                15          15
                16          16
                17          17
                18          18

 KPOINTS: EA

Automatic generation of k-mesh.
 Grid dimensions read from file:
 generate k-points for:    6    6    6

 Generating k-lattice:

  Cartesian coordinates                     Fractional coordinates (reciprocal lattice)
     0.024903840  0.012944079  0.000000000     0.166666667  0.000000000  0.000000000
     0.000000000  0.028066892  0.000000000     0.000000000  0.166666667  0.000000000
     0.009183070  0.015122432  0.023148920     0.000000000  0.000000000  0.166666667

  Length of vectors
     0.028066892  0.028066892  0.029135703

  Shift w.r.t. Gamma in fractional coordinates (k-lattice)
     0.000000000  0.000000000  0.000000000

 Subroutine IBZKPT returns following result:

 Found     30 irreducible k-points:

 Following reciprocal coordinates:
            Coordinates               Weight
  0.000000  0.000000  0.000000      1.000000
  0.166667 -0.000000  0.000000      8.000000
  0.333333 -0.000000  0.000000      8.000000
  0.500000 -0.000000  0.000000      4.000000
  0.166667  0.166667  0.000000      8.000000
  0.333333  0.166667  0.000000     16.000000
  0.500000  0.166667  0.000000     16.000000
 -0.333333  0.166667  0.000000     16.000000
 -0.166667  0.166667  0.000000      4.000000
  0.333333  0.333333  0.000000      8.000000
  0.500000  0.333333  0.000000     16.000000
 -0.333333  0.333333  0.000000      4.000000
  0.500000  0.500000  0.000000      2.000000
  0.166667  0.166667  0.166667      8.000000
  0.333333  0.166667  0.166667      8.000000
 -0.166667  0.166667  0.166667      4.000000
  0.333333  0.333333  0.166667      4.000000
 -0.333333  0.333333  0.166667      8.000000
 -0.166667  0.333333  0.166667      8.000000
  0.500000  0.500000  0.166667      4.000000
 -0.333333  0.500000  0.166667     16.000000
 -0.166667  0.500000  0.166667      8.000000
 -0.333333 -0.333333  0.166667      8.000000
 -0.166667 -0.333333  0.166667      8.000000
 -0.166667 -0.166667  0.166667      2.000000
 -0.333333  0.333333  0.333333      4.000000
  0.500000  0.500000  0.333333      4.000000
 -0.333333  0.500000  0.333333      8.000000
 -0.333333 -0.333333  0.333333      2.000000
  0.500000  0.500000  0.500000      1.000000

 Following cartesian coordinates:
            Coordinates               Weight
  0.000000  0.000000  0.000000      1.000000
  0.024904  0.012944  0.000000      8.000000
  0.049808  0.025888  0.000000      8.000000
  0.074712  0.038832  0.000000      4.000000
  0.024904  0.041011  0.000000      8.000000
  0.049808  0.053955  0.000000     16.000000
  0.074712  0.066899  0.000000     16.000000
 -0.049808  0.002179  0.000000     16.000000
 -0.024904  0.015123  0.000000      4.000000
  0.049808  0.082022  0.000000      8.000000
  0.074712  0.094966  0.000000     16.000000
 -0.049808  0.030246  0.000000      4.000000
[...]
 Gauss-broadening in eV      SIGMA  =   0.02

  energy-cutoff  :      600.00
  volume of cell :      286.12
      direct lattice vectors                 reciprocal lattice vectors
     6.692408262  0.000000000 -2.654847586     0.149423042  0.077664476  0.000000000
    -3.086450102  5.938194517 -2.654847586     0.000000000  0.168401355  0.000000000
     0.000000000  0.000000000  7.199760000     0.055098420  0.090734590  0.138893519

  length of vectors
     7.199760000  7.199760000  7.199760000     0.168401355  0.168401355  0.174814220

 k-points in units of 2pi/SCALE and weight: EA
   0.00000000  0.00000000  0.00000000       0.005
   0.02490384  0.01294408  0.00000000       0.037
   0.04980768  0.02588816  0.00000000       0.037
   0.07471152  0.03883224  0.00000000       0.019
   0.02490384  0.04101097  0.00000000       0.037
   0.04980768  0.05395505  0.00000000       0.074
   0.07471152  0.06689913  0.00000000       0.074
  -0.04980768  0.00217873  0.00000000       0.074
  -0.02490384  0.01512281  0.00000000       0.019
   0.04980768  0.08202194  0.00000000       0.037
   0.07471152  0.09496602  0.00000000       0.074
  -0.04980768  0.03024563  0.00000000       0.019
   0.07471152  0.12303292  0.00000000       0.009
   0.03408691  0.05613340  0.02314892       0.037
   0.05899075  0.06907748  0.02314892       0.037
  -0.01572077  0.03024524  0.02314892       0.019
   0.05899075  0.09714438  0.02314892       0.019
  -0.04062461  0.04536806  0.02314892       0.037
  -0.01572077  0.05831214  0.02314892       0.037
   0.08389459  0.13815535  0.02314892       0.019
  -0.04062461  0.07343495  0.02314892       0.074
  -0.01572077  0.08637903  0.02314892       0.037
  -0.04062461 -0.06689951  0.02314892       0.037
  -0.01572077 -0.05395543  0.02314892       0.037
  -0.01572077 -0.02588854  0.02314892       0.009
  -0.03144154  0.06049049  0.04629784       0.019
   0.09307766  0.15327778  0.04629784       0.019
  -0.03144154  0.08855738  0.04629784       0.037
  -0.03144154 -0.05177708  0.04629784       0.009
   0.10226073  0.16840021  0.06944676       0.005

 k-points in reciprocal lattice and weights: EA
   0.00000000  0.00000000  0.00000000       0.005
   0.16666667 -0.00000000  0.00000000       0.037
   0.33333333 -0.00000000  0.00000000       0.037
   0.50000000 -0.00000000  0.00000000       0.019
   0.16666667  0.16666667  0.00000000       0.037
   0.33333333  0.16666667  0.00000000       0.074
   0.50000000  0.16666667  0.00000000       0.074
  -0.33333333  0.16666667  0.00000000       0.074
  -0.16666667  0.16666667  0.00000000       0.019
   0.33333333  0.33333333  0.00000000       0.037
   0.50000000  0.33333333  0.00000000       0.074
  -0.33333333  0.33333333  0.00000000       0.019
   0.50000000  0.50000000  0.00000000       0.009
   0.16666667  0.16666667  0.16666667       0.037
   0.33333333  0.16666667  0.16666667       0.037
  -0.16666667  0.16666667  0.16666667       0.019
   0.33333333  0.33333333  0.16666667       0.019
  -0.33333333  0.33333333  0.16666667       0.037
  -0.16666667  0.33333333  0.16666667       0.037
   0.50000000  0.50000000  0.16666667       0.019
  -0.33333333  0.50000000  0.16666667       0.074
  -0.16666667  0.50000000  0.16666667       0.037
  -0.33333333 -0.33333333  0.16666667       0.037
  -0.16666667 -0.33333333  0.16666667       0.037
  -0.16666667 -0.16666667  0.16666667       0.009
  -0.33333333  0.33333333  0.33333333       0.019
   0.50000000  0.50000000  0.33333333       0.019
  -0.33333333  0.50000000  0.33333333       0.037
  -0.33333333 -0.33333333  0.33333333       0.009
   0.50000000  0.50000000  0.50000000       0.005

 position of ions in fractional coordinates (direct lattice)
   0.50000000  0.50000000  0.50000000
   0.00000000  0.00000000  0.50000000
   0.00000000  0.50000000  0.00000000
   0.50000000  0.00000000  0.00000000
   0.19885000  0.69885000  0.21828000
   0.51943000  0.01943000  0.21828000
   0.63924000  0.86076000  0.50000000
   0.48057000  0.98057000  0.78172000
   0.01943000  0.80115000  0.50000000
   0.86076000  0.36076000  0.22152000
   0.69885000  0.48057000  0.50000000
   0.80115000  0.30115000  0.78172000
   0.13924000  0.63924000  0.77848000
   0.30115000  0.51943000  0.50000000
   0.36076000  0.13924000  0.50000000
   0.98057000  0.19885000  0.50000000
   0.25000000  0.25000000  0.00000000
   0.75000000  0.75000000  0.00000000

 position of ions in cartesian coordinates  (Angst):
   1.80297908  2.96909726  0.94503241
   0.00000000  0.00000000  3.59988000
  -1.54322505  2.96909726 -1.32742379
   3.34620413  0.00000000 -1.32742379
  -0.82618027  4.14990724 -0.81169307
   3.41626790  0.11537912  0.14097244
   1.62136227  5.11136031 -0.38239138
   0.18969026  5.82281540  1.74909239
  -2.34267601  4.75738454  1.42136517
   4.64708960  2.14226305 -1.64805859
   3.19373419  2.85371814  0.46869966
   4.43213843  1.78828728  2.70175789
  -1.04113144  3.79593146  3.53812342
   0.41222397  3.08447638  1.42136517
   1.98459589  0.82683420  2.27245621
   5.94863417  1.18080998  0.46869966
   0.90148954  1.48454863 -1.32742379
   2.70446862  4.45364589 -3.98227138

 k-point   1 :   0.0000 0.0000 0.0000  plane waves:    9533
 k-point   2 :   0.1667-0.0000 0.0000  plane waves:    9564
 k-point   3 :   0.3333-0.0000 0.0000  plane waves:    9564
 k-point   4 :   0.5000-0.0000 0.0000  plane waves:    9528
 k-point   5 :   0.1667 0.1667 0.0000  plane waves:    9543
 k-point   6 :   0.3333 0.1667 0.0000  plane waves:    9544
 k-point   7 :   0.5000 0.1667 0.0000  plane waves:    9547
 k-point   8 :  -0.3333 0.1667 0.0000  plane waves:    9564
 k-point   9 :  -0.1667 0.1667 0.0000  plane waves:    9575
 k-point  10 :   0.3333 0.3333 0.0000  plane waves:    9535
 k-point  11 :   0.5000 0.3333 0.0000  plane waves:    9555
 k-point  12 :  -0.3333 0.3333 0.0000  plane waves:    9557
 k-point  13 :   0.5000 0.5000 0.0000  plane waves:    9550
 k-point  14 :   0.1667 0.1667 0.1667  plane waves:    9556
 k-point  15 :   0.3333 0.1667 0.1667  plane waves:    9534
 k-point  16 :  -0.1667 0.1667 0.1667  plane waves:    9562
 k-point  17 :   0.3333 0.3333 0.1667  plane waves:    9558
 k-point  18 :  -0.3333 0.3333 0.1667  plane waves:    9542
 k-point  19 :  -0.1667 0.3333 0.1667  plane waves:    9558
 k-point  20 :   0.5000 0.5000 0.1667  plane waves:    9564
 k-point  21 :  -0.3333 0.5000 0.1667  plane waves:    9536
 k-point  22 :  -0.1667 0.5000 0.1667  plane waves:    9553
 k-point  23 :  -0.3333-0.3333 0.1667  plane waves:    9539
 k-point  24 :  -0.1667-0.3333 0.1667  plane waves:    9541
 k-point  25 :  -0.1667-0.1667 0.1667  plane waves:    9521
 k-point  26 :  -0.3333 0.3333 0.3333  plane waves:    9546
 k-point  27 :   0.5000 0.5000 0.3333  plane waves:    9518
 k-point  28 :  -0.3333 0.5000 0.3333  plane waves:    9526
 k-point  29 :  -0.3333-0.3333 0.3333  plane waves:    9554
 k-point  30 :   0.5000 0.5000 0.5000  plane waves:    9594

 maximum and minimum number of plane-waves per node :      4797     4744

 maximum number of plane-waves:      9594
 maximum index in each direction:
   IXMAX=   14   IYMAX=   14   IZMAX=   14
   IXMIN=  -14   IYMIN=  -14   IZMIN=  -14

 parallel 3D FFT for wavefunctions:
    minimum data exchange during FFTs selected (reduces bandwidth)
 parallel 3D FFT for charge:
    minimum data exchange during FFTs selected (reduces bandwidth)

 Broyden mixing: mesh for mixing (old mesh)
   NGX = 29   NGY = 29   NGZ = 29
  (NGX  =120   NGY  =120   NGZ  =120)
  gives a total of  24389 points

 initial charge density was supplied:
 charge density of overlapping atoms calculated
 number of electron     188.0000000 magnetization
 keeping initial charge density in first step

 Maximum index for augmentation-charges        21502 (set IRDMAX)

 First call to EWALD:  gamma=   0.269
 Maximum number of real-space cells 3x 3x 3
 Maximum number of reciprocal cells 3x 3x 3

--------------------------------------- Iteration      1(   1)  ---------------------------------------

 eigenvalue-minimisations  :  7164
 total energy-change (2. order) : 0.2344355E+04  (-0.1306537E+05)
 number of electron     188.0000000 magnetization
 augmentation part      188.0000000 magnetization

 Free energy of the ion-electron system (eV)
  alpha Z        PSCENC =      1109.21529219
  Ewald energy   TEWEN  =    -15924.66352569
  -Hartree energ DENC   =     -6654.96862266
  -exchange      EXHF   =         0.00000000
  -V(xc)+E(xc)   XCENC  =       946.21451182
  PAW double counting   =     18167.42904368   -18107.57746203
  entropy T*S    EENTRO =        -0.00222165
  eigenvalues    EBANDS =       -29.49420715
  atomic energy  EATOM  =     22838.20177132
  free energy    TOTEN  =      2344.35457984 eV

  energy without entropy =     2344.35680149  energy(sigma->0) =     2344.35569066

[...]

 eigenvalue-minimisations  :  7380
 total energy-change (2. order) :-0.2617744E+04  (-0.2545270E+04)
 number of electron     188.0000000 magnetization
 augmentation part      188.0000000 magnetization

[...]

 eigenvalue-minimisations  :     0
 total energy-change (2. order) :-0.2426532E-08  ( 0.3261537E-07)
 number of electron     187.9999999 magnetization
 augmentation part       29.4189305 magnetization

[...]

 eigenvalue-minimisations  :     0
 total energy-change (2. order) :-0.2055458E-08  (-0.5440917E-09)
 number of electron     187.9999999 magnetization
 augmentation part       29.4189277 magnetization

[...]

--------------------------------------- Iteration      1(  38)  ---------------------------------------

 eigenvalue-minimisations  :     0
 total energy-change (2. order) : 0.8731149E-10  (-0.5709160E-09)
 number of electron     187.9999999 magnetization
 augmentation part       29.4189273 magnetization

 Free energy of the ion-electron system (eV)
  alpha Z        PSCENC =      1109.21529219
  Ewald energy   TEWEN  =    -15924.66352569
  -Hartree energ DENC   =     -6588.87943250
  -exchange      EXHF   =         0.00000000
  -V(xc)+E(xc)   XCENC  =       969.45080415
  PAW double counting   =     25797.55321625   -25770.64600481
  entropy T*S    EENTRO =        -0.00234308
  eigenvalues    EBANDS =     -2726.34798309
  atomic energy  EATOM  =     22838.20177132
  free energy    TOTEN  =      -296.11820525 eV

  energy without entropy =     -296.11586218  energy(sigma->0) =     -296.11703371

  average scaling for gradient   0.8529

 average (electrostatic) potential at core
  the test charge radii are     0.7672  1.0818  0.9892
  (the norm of the test charge is              1.0000)
       1 -26.4368       2 -26.4368       3 -26.4359       4 -26.4365       5 -76.9687
       6 -76.9688       7 -77.8687       8 -76.9688       9 -76.9689      10 -77.8686
      11 -76.9689      12 -76.9687      13 -77.8686      14 -76.9689      15 -77.8687
      16 -76.9689      17 -84.4894      18 -84.4894

 E-fermi :   8.7856     XC(G=0): -12.6076     alpha+bet :-16.3320

 Fermi energy:         8.7855877491

 k-point     1 :       0.0000    0.0000    0.0000
  band No.  band energies     occupation
      1     -53.9346      2.00000
      2     -53.8940      2.00000
      3     -53.8760      2.00000
      4     -53.8759      2.00000
      5     -53.4622      2.00000
      6     -53.4453      2.00000
      7     -53.4451      2.00000
      8     -53.4127      2.00000
      9     -53.3610      2.00000
     10     -53.3609      2.00000
     11     -53.3588      2.00000
     12     -53.3521      2.00000
     13     -28.2681      2.00000
     14     -28.1874      2.00000
     15     -28.1872      2.00000
     16     -28.1388      2.00000
     17     -28.1252      2.00000
     18     -28.0862      2.00000
     19     -27.7841      2.00000
     20     -27.7839      2.00000
     21     -27.4687      2.00000
     22     -27.4318      2.00000
     23     -27.3335      2.00000
     24     -27.3334      2.00000
     25     -27.3280      2.00000
     26     -27.3278      2.00000
     27     -27.1981      2.00000
     28     -27.1976      2.00000
     29     -27.1485      2.00000
     30     -27.1402      2.00000
     31     -27.1401      2.00000
     32     -27.0957      2.00000
     33     -26.9425      2.00000
     34     -26.9425      2.00000
     35     -26.9281      2.00000
     36     -26.8115      2.00000
     37     -26.6802      2.00000
     38     -26.6067      2.00000
     39     -26.5915      2.00000
     40     -26.5914      2.00000
     41     -26.4577      2.00000
     42     -26.4076      2.00000
     43     -26.3937      2.00000
     44     -26.3937      2.00000
     45     -26.3048      2.00000
     46     -26.2628      2.00000
     47     -26.2627      2.00000
     48     -26.2091      2.00000
     49      -0.2294      2.00000
     50       0.7583      2.00000
     51       2.4851      2.00000
     52       2.4869      2.00000
     53       2.4870      2.00000
     54       2.6752      2.00000
     55       2.8123      2.00000
     56       2.8419      2.00000
     57       2.8420      2.00000
     58       3.1528      2.00000
     59       3.1528      2.00000
     60       3.3690      2.00000
[...]
    100       9.8436      0.00000
    101       9.9813      0.00000
    102      10.2098      0.00000
    103      10.3101      0.00000
    104      10.3153      0.00000
    105      10.6400      0.00000
    106      10.6403      0.00000
    107      10.8815      0.00000
    108      10.9083      0.00000
    109      11.1282      0.00000
    110      11.1440      0.00000
    111      11.2495      0.00000
    112      11.3918      0.00000
    113      11.5479      0.00000
    114      11.6064      0.00000

[...]

 k-point    30 :       0.5000    0.5000    0.5000
  band No.  band energies     occupation
      1     -53.9123      2.00000
      2     -53.9109      2.00000
      3     -53.8799      2.00000
      4     -53.8798      2.00000
      5     -53.4789      2.00000
      6     -53.4214      2.00000
      7     -53.4027      2.00000
      8     -53.4025      2.00000
      9     -53.3997      2.00000
     10     -53.3995      2.00000
     11     -53.3746      2.00000
     12     -53.3164      2.00000
     13     -28.3233      2.00000
     14     -28.2492      2.00000
     15     -28.1009      2.00000
     16     -28.0808      2.00000
     17     -28.0806      2.00000
     18     -27.8973      2.00000
     19     -27.8620      2.00000
     20     -27.8617      2.00000
     21     -27.5252      2.00000
     22     -27.4787      2.00000
     23     -27.4786      2.00000
     24     -27.4053      2.00000
     25     -27.3955      2.00000
     26     -27.3954      2.00000
     27     -27.3798      2.00000
     28     -27.2164      2.00000
     29     -27.1181      2.00000
     30     -27.1019      2.00000
     31     -27.1019      2.00000
     32     -26.9301      2.00000
     33     -26.8802      2.00000
     34     -26.7351      2.00000
     35     -26.7028      2.00000
     36     -26.6882      2.00000
     37     -26.6880      2.00000
     38     -26.6248      2.00000
     39     -26.5610      2.00000
     40     -26.5610      2.00000
     41     -26.4928      2.00000
     42     -26.4435      2.00000
     43     -26.4435      2.00000
     44     -26.3988      2.00000
     45     -26.3913      2.00000
     46     -26.3547      2.00000
     47     -26.3546      2.00000
     48     -26.1895      2.00000
     49       0.4556      2.00000
     50       0.5327      2.00000
     51       2.1671      2.00000
     52       2.1712      2.00000
     53       2.1713      2.00000
     54       2.4733      2.00000
     55       2.5314      2.00000
     56       2.9188      2.00000
     57       2.9190      2.00000
     58       3.7254      2.00000
     59       3.7356      2.00000
     60       3.7358      2.00000
[...]
    100       9.9719      0.00000
    101       9.9939      0.00000
    102       9.9940      0.00000
    103      10.2326      0.00000
    104      10.2327      0.00000
    105      10.5640      0.00000
    106      10.6819      0.00000
    107      10.7736      0.00000
    108      10.8751      0.00000
    109      10.8843      0.00000
    110      10.9499      0.00000
    111      11.0292      0.00000
    112      11.2366      0.00000
    113      11.5078      0.00000
    114      11.5656      0.00000

 soft charge-density along one line, spin component           1
         0         1         2         3         4         5         6         7         8         9
 total charge-density along one line

------------------------ aborting loop because EDIFF is reached ----------------------------------------

  FREE ENERGIE OF THE ION-ELECTRON SYSTEM (eV)
  free  energy   TOTEN  =      -296.11820525 eV

  energy  without entropy=     -296.11586218  energy(sigma->0) =     -296.11703371

 writing wavefunctions