 vasp.6.2.0 18Jan21 (build Jan 05 2022 15:41:44) complex

 executed on             LinuxIFC date 2025.05.07  19:25:20

 INCAR:
   SYSTEM = routine with relax: pwdword
   ICHARG = 2
   NPAR = 6
   KPAR = 2
   NCORE = 2
   ADDGRID = T
   PREC = Acc
   ENCUT = 600
   METAGGA = R2SCAN
   LASPH = .TRUE.
   LMIXTAU = .FALSE.
   ALGO = A
   EDIFF = 1E-9
   NELM = 100
   NELMIN = 6
   IALGO = 38
   LREAL = F
   NSW = 0
   ISIF = -1
   ISMEAR = 0
   SIGMA = 0.02

 POTCAR:    PAW_PBE B 06Sep2000
 POTCAR:    PAW_PBE Mo_sv 02Feb2006
 POTCAR:    PAW_PBE Si 05Jan2001
|           W    W    AA    RRRRR   N    N  II  N    N   GGGG   !!!           |
|           W    W   A  A   R    R  NN   N  II  NN   N  G    G  !!!           |
|           W    W  A    A  R    R  N N  N  II  N N  N  G       !!!           |
|           W WW W  AAAAAA  RRRRR   N  N N  II  N  N N  G  GGG   !            |
|           WW  WW  A    A  R   R   N   NN  II  N   NN  G    G                |
|           W    W  A    A  R    R  N    N  II  N    N   GGGG   !!!           |
|     For optimal performance we recommend to set                             |
|       NCORE = 2 up to number-of-cores-per-socket                            |
|     This setting can greatly improve the performance of VASP for DFT.       |
|     The default, NCORE=1 might be grossly inefficient on modern             |
|     multi-core architectures or massively parallel machines. Do your        |
|     Unfortunately you need to use the default for GW and RPA                |
|     calculations (for HF NCORE is supported but not extensively tested      |
|     yet).                                                                   |

 POTCAR:    PAW_PBE B 06Sep2000
   VRHFIN =B: s2p1

   TITEL  = PAW_PBE B 06Sep2000
   POMASS =   10.811; ZVAL   =    3.000    mass and valenz
   ENMAX  =  318.614; ENMIN  =  238.960 eV

 POTCAR:    PAW_PBE Mo_sv 02Feb2006
   VRHFIN =Mo: 4p5s4d

   TITEL  = PAW_PBE Mo_sv 02Feb2006
   POMASS =   95.940; ZVAL   =   14.000    mass and valenz
   ENMAX  =  242.676; ENMIN  =  182.007 eV

 POTCAR:    PAW_PBE Si 05Jan2001
   VRHFIN =Si: s2p2

   TITEL  = PAW_PBE Si 05Jan2001
   POMASS =   28.085; ZVAL   =    4.000    mass and valenz
   ENMAX  =  245.345; ENMIN  =  184.009 eV

  PAW_PBE B 06Sep2000                   :
  PAW_PBE Mo_sv 02Feb2006               :
  PAW_PBE Si 05Jan2001                  :

 POSCAR: EA184
  positions in direct lattice

 METAGGA = R2SCA    LMAXTAU =  6    LMIXTAU =  F

 ion  position               nearest neighbor table
   1  0.452  0.295  0.747-  15 1.44   5 2.13   3 2.13  10 2.22  11 2.59  14 2.59  17 2.60  18 2.60

   2  0.548  0.705  0.253-  13 1.44   3 2.13   5 2.13   9 2.22  11 2.59  14 2.59  18 2.60  17 2.60

[...]

   9  0.242  0.742  0.983-   5 1.44   8 1.44  12 2.12  16 2.12   2 2.22   4 2.22  18 3.31  17 3.31
                            17 3.31  18 3.31
  10  0.758  0.258  0.017-   3 1.44   7 1.44  12 2.12  16 2.12   6 2.22   1 2.22  17 3.31  18 3.31
                            18 3.31  17 3.31
  11  0.500  0.500  0.500-  13 2.12  15 2.12  18 2.54  17 2.54   1 2.59   2 2.59   4 2.59   6 2.59

  12  0.000  0.500  0.000-   9 2.12  10 2.12  17 2.54  18 2.54   3 2.59   5 2.59   7 2.59   8 2.59

  13  0.742  0.758  0.500-   2 1.44   6 1.44  14 2.12  11 2.12   3 2.22   8 2.22  18 3.31  18 3.31
                            17 3.31  17 3.31
  14  0.000  0.000  0.500-  13 2.12  15 2.12  17 2.54  18 2.54   4 2.59   6 2.59   1 2.59   2 2.59

  15  0.258  0.242  0.500-   1 1.44   4 1.44  14 2.12  11 2.12   5 2.22   7 2.22  17 3.31  17 3.31
                            18 3.31  18 3.31
  16  0.500  0.000  0.000-   9 2.12  10 2.12  17 2.54  18 2.54   7 2.59   8 2.59   3 2.59   5 2.59

  17  0.250  0.250  0.000-  12 2.54  16 2.54  11 2.54  14 2.54   1 2.60   4 2.60   5 2.60   7 2.60
                             8 2.60   3 2.60   2 2.60   6 2.60  10 3.31   9 3.31  15 3.31  15 3.31
  18  0.750  0.750  0.000-  12 2.54  16 2.54  14 2.54  11 2.54   2 2.60   6 2.60   3 2.60   8 2.60
                             7 2.60   5 2.60   1 2.60   4 2.60   9 3.31  10 3.31  13 3.31  13 3.31

  LATTYP: Found a base centered monoclinic cell.
 ALAT       =     8.4890312019
 B/A-ratio  =     1.1957109002
 C/A-ratio  =     0.7793786879
 COS(beta)  =    -0.6415254263

  Lattice vectors:

 A1 = (   6.0298564509,   0.0000000000,  -2.7229646803)
 A2 = (  -2.5135617853,   5.4809831208,  -2.7229646803)
 A3 = (   0.0000000000,   0.0000000000,   6.6161700000)

Analysis of symmetry for initial positions (statically):
 Subroutine PRICEL returns:
 Original cell was already a primitive cell.

 Routine SETGRP: Setting up the symmetry group for a
 base centered monoclinic supercell.

 Subroutine GETGRP returns: Found  4 space group operations
 (whereof  2 operations were pure point group operations)
 out of a pool of  4 trial point group operations.

The static configuration has the point symmetry S_2 .
 The point group associated with its full space group is C_2h.

Analysis of symmetry for dynamics (positions and initial velocities):
 Subroutine PRICEL returns:
 Original cell was already a primitive cell.

 Routine SETGRP: Setting up the symmetry group for a
 base centered monoclinic supercell.

 Subroutine GETGRP returns: Found  4 space group operations
 (whereof  2 operations were pure point group operations)
 out of a pool of  4 trial point group operations.

The dynamic configuration has the point symmetry S_2 .
 The point group associated with its full space group is C_2h.

 Subroutine INISYM returns: Found  4 space group operations
 (whereof  2 operations are pure point group operations),
 and found     1 'primitive' translations

                                     Primitive cell

  volume of cell :     218.6614

  direct lattice vectors                    reciprocal lattice vectors
     6.029856451  0.000000000 -2.722964680     0.165841427  0.076054362  0.000000000
    -2.513561785  5.480983121 -2.722964680     0.000000000  0.182449020  0.000000000
     0.000000000  0.000000000  6.616170000     0.068254043  0.106390189  0.151144847

  length of vectors
     6.616170000  6.616170000  6.616170000     0.182449020  0.182449020  0.197033630

  position of ions in fractional coordinates (direct lattice)
     0.451500000  0.295360000  0.746860000
     0.548500000  0.704640000  0.253140000
     0.704640000  0.451500000  0.156140000
     0.204640000  0.048500000  0.253140000
     0.295360000  0.548500000  0.843860000
     0.795360000  0.951500000  0.746860000
     0.951500000  0.204640000  0.156140000
     0.048500000  0.795360000  0.843860000
     0.241540000  0.741540000  0.983080000
     0.758460000  0.258460000  0.016920000
     0.500000000  0.500000000  0.500000000
     0.000000000  0.500000000  0.000000000
     0.741540000  0.758460000  0.500000000
     0.000000000  0.000000000  0.500000000
     0.258460000  0.241540000  0.500000000
     0.500000000  0.000000000  1.000000000
     0.250000000  0.250000000  1.000000000
     0.750000000  0.750000000  1.000000000

  ion indices of the primitive-cell ions
   primitive index   ion index
                 1           1
                 2           2
                 3           3
                 4           4
                 5           5
                 6           6
                 7           7
                 8           8
                 9           9
                10          10
                11          11
                12          12
                13          13
                14          14
                15          15
                16          16
                17          17
                18          18

 KPOINTS: EA

Automatic generation of k-mesh.
 Grid dimensions read from file:
 generate k-points for:    7    7    7

 Generating k-lattice:

  Cartesian coordinates                     Fractional coordinates (reciprocal lattice)
     0.023691632  0.010864909  0.000000000     0.142857143  0.000000000  0.000000000
     0.000000000  0.026064146  0.000000000     0.000000000  0.142857143  0.000000000
     0.009750578  0.015198598  0.021592121     0.000000000  0.000000000  0.142857143

  Length of vectors
     0.026064146  0.026064146  0.028147661

  Shift w.r.t. Gamma in fractional coordinates (k-lattice)
     0.000000000  0.000000000  0.000000000

 Subroutine IBZKPT returns following result:

 Found    100 irreducible k-points:

 Following reciprocal coordinates:
            Coordinates               Weight
  0.000000  0.000000  0.000000      1.000000
  0.142857  0.000000  0.000000      4.000000
  0.285714  0.000000  0.000000      4.000000
  0.428571  0.000000  0.000000      4.000000
  0.142857  0.142857  0.000000      2.000000
  0.285714  0.142857  0.000000      4.000000
  0.428571  0.142857  0.000000      4.000000
 -0.428571  0.142857  0.000000      4.000000
 -0.285714  0.142857  0.000000      4.000000
 -0.142857  0.142857  0.000000      2.000000
  0.285714  0.285714  0.000000      2.000000
  0.428571  0.285714  0.000000      4.000000
 -0.428571  0.285714  0.000000      4.000000
 -0.285714  0.285714  0.000000      2.000000
  0.428571  0.428571  0.000000      2.000000
 -0.428571  0.428571  0.000000      2.000000
 -0.000000  0.000000  0.142857      2.000000
  0.142857  0.000000  0.142857      4.000000
  0.285714  0.000000  0.142857      4.000000
  0.428571  0.000000  0.142857      4.000000
 -0.428571  0.000000  0.142857      4.000000
 -0.285714  0.000000  0.142857      4.000000
 -0.142857  0.000000  0.142857      4.000000
  0.142857  0.142857  0.142857      2.000000
  0.285714  0.142857  0.142857      4.000000
  0.428571  0.142857  0.142857      4.000000
 -0.428571  0.142857  0.142857      4.000000
 -0.285714  0.142857  0.142857      4.000000
 -0.142857  0.142857  0.142857      4.000000
  0.285714  0.285714  0.142857      2.000000
  0.428571  0.285714  0.142857      4.000000
 -0.428571  0.285714  0.142857      4.000000
 -0.285714  0.285714  0.142857      4.000000
 -0.142857  0.285714  0.142857      4.000000
  0.428571  0.428571  0.142857      2.000000
 -0.428571  0.428571  0.142857      4.000000
 -0.285714  0.428571  0.142857      4.000000
 -0.142857  0.428571  0.142857      4.000000
 -0.428571 -0.428571  0.142857      2.000000
 -0.285714 -0.428571  0.142857      4.000000
 -0.142857 -0.428571  0.142857      4.000000
 -0.285714 -0.285714  0.142857      2.000000
 -0.142857 -0.285714  0.142857      4.000000
 -0.142857 -0.142857  0.142857      2.000000
 -0.000000  0.000000  0.285714      2.000000
  0.142857 -0.000000  0.285714      4.000000
  0.285714  0.000000  0.285714      4.000000
  0.428571 -0.000000  0.285714      4.000000
 -0.428571  0.000000  0.285714      4.000000
 -0.285714  0.000000  0.285714      4.000000
 -0.142857  0.000000  0.285714      4.000000
  0.142857  0.142857  0.285714      2.000000
  0.285714  0.142857  0.285714      4.000000
  0.428571  0.142857  0.285714      4.000000
 -0.428571  0.142857  0.285714      4.000000
 -0.285714  0.142857  0.285714      4.000000
 -0.142857  0.142857  0.285714      4.000000
  0.285714  0.285714  0.285714      2.000000
  0.428571  0.285714  0.285714      4.000000
 -0.428571  0.285714  0.285714      4.000000
[...]
[...]
   0.28571429  0.14285714  0.28571429       0.012
   0.42857143  0.14285714  0.28571429       0.012
  -0.42857143  0.14285714  0.28571429       0.012
  -0.28571429  0.14285714  0.28571429       0.012
  -0.14285714  0.14285714  0.28571429       0.012
   0.28571429  0.28571429  0.28571429       0.006
   0.42857143  0.28571429  0.28571429       0.012
  -0.42857143  0.28571429  0.28571429       0.012
[...]
   0.28571429  0.28571429  0.42857143       0.006
   0.42857143  0.28571429  0.42857143       0.012
  -0.42857143  0.28571429  0.42857143       0.012
  -0.28571429  0.28571429  0.42857143       0.012
  -0.14285714  0.28571429  0.42857143       0.012
   0.42857143  0.42857143  0.42857143       0.006
  -0.42857143  0.42857143  0.42857143       0.012
  -0.28571429  0.42857143  0.42857143       0.012
  -0.14285714  0.42857143  0.42857143       0.012
  -0.42857143 -0.42857143  0.42857143       0.006
  -0.28571429 -0.42857143  0.42857143       0.012
  -0.14285714 -0.42857143  0.42857143       0.012
  -0.28571429 -0.28571429  0.42857143       0.006
  -0.14285714 -0.28571429  0.42857143       0.012
  -0.14285714 -0.14285714  0.42857143       0.006

 position of ions in fractional coordinates (direct lattice)
   0.45150000  0.29536000  0.74686000
   0.54850000  0.70464000  0.25314000
   0.70464000  0.45150000  0.15614000
   0.20464000  0.04850000  0.25314000
   0.29536000  0.54850000  0.84386000
   0.79536000  0.95150000  0.74686000
   0.95150000  0.20464000  0.15614000
   0.04850000  0.79536000  0.84386000
   0.24154000  0.74154000  0.98308000
   0.75846000  0.25846000  0.01692000
   0.50000000  0.50000000  0.50000000
   0.00000000  0.50000000  0.00000000
   0.74154000  0.75846000  0.50000000
   0.00000000  0.00000000  0.50000000
   0.25846000  0.24154000  0.50000000
   0.50000000  0.00000000  0.00000000
   0.25000000  0.25000000  0.00000000
   0.75000000  0.75000000  0.00000000

 position of ions in cartesian coordinates  (Angst):
   1.98007458  1.61886317  2.90767933
   1.53622009  3.86211995 -1.73743869
   3.11400490  2.47466388 -2.11507960
   1.11204208  0.26582768  0.98552599
   0.40228976  3.00631924  3.28532024
   2.40425259  5.21515544  0.18471464
   5.22303313  1.12162839 -2.11507960
  -1.70673846  4.35935473  3.28532024
  -0.40745508  4.06436822  3.82733229
   3.92374974  1.41661490 -2.65709165
   1.75814733  2.74049156  0.58512032
  -1.25678089  2.74049156 -1.36148234
   2.56494368  4.15710646 -0.77636202
   0.00000000  0.00000000  3.30808500
   0.95135098  1.32387666  1.94660266
   3.01492823  0.00000000 -1.36148234
   0.87907367  1.37024578 -1.36148234
   2.63722100  4.11073734 -4.08444702

 k-point   1 :   0.0000 0.0000 0.0000  plane waves:    7277
 k-point   2 :   0.1429 0.0000 0.0000  plane waves:    7294
 k-point   3 :   0.2857 0.0000 0.0000  plane waves:    7296
 k-point   4 :   0.4286 0.0000 0.0000  plane waves:    7316
 k-point   5 :   0.1429 0.1429 0.0000  plane waves:    7297
 k-point   6 :   0.2857 0.1429 0.0000  plane waves:    7303
 k-point   7 :   0.4286 0.1429 0.0000  plane waves:    7293
 k-point   8 :  -0.4286 0.1429 0.0000  plane waves:    7298
 k-point   9 :  -0.2857 0.1429 0.0000  plane waves:    7295
 k-point  10 :  -0.1429 0.1429 0.0000  plane waves:    7288
 k-point  11 :   0.2857 0.2857 0.0000  plane waves:    7306
 k-point  12 :   0.4286 0.2857 0.0000  plane waves:    7295
 k-point  13 :  -0.4286 0.2857 0.0000  plane waves:    7294
 k-point  14 :  -0.2857 0.2857 0.0000  plane waves:    7302
 k-point  15 :   0.4286 0.4286 0.0000  plane waves:    7294
 k-point  16 :  -0.4286 0.4286 0.0000  plane waves:    7298
 k-point  17 :  -0.0000 0.0000 0.1429  plane waves:    7288
 k-point  18 :   0.1429 0.0000 0.1429  plane waves:    7295
 k-point  19 :   0.2857 0.0000 0.1429  plane waves:    7298
 k-point  20 :   0.4286 0.0000 0.1429  plane waves:    7293
 k-point  21 :  -0.4286 0.0000 0.1429  plane waves:    7303
 k-point  22 :  -0.2857 0.0000 0.1429  plane waves:    7297
 k-point  23 :  -0.1429 0.0000 0.1429  plane waves:    7294
 k-point  24 :   0.1429 0.1429 0.1429  plane waves:    7291
 k-point  25 :   0.2857 0.1429 0.1429  plane waves:    7292
 k-point  26 :   0.4286 0.1429 0.1429  plane waves:    7292
 k-point  27 :  -0.4286 0.1429 0.1429  plane waves:    7291
 k-point  28 :  -0.2857 0.1429 0.1429  plane waves:    7295
 k-point  29 :  -0.1429 0.1429 0.1429  plane waves:    7297
 k-point  30 :   0.2857 0.2857 0.1429  plane waves:    7301
 k-point  31 :   0.4286 0.2857 0.1429  plane waves:    7298
 k-point  32 :  -0.4286 0.2857 0.1429  plane waves:    7294
 k-point  33 :  -0.2857 0.2857 0.1429  plane waves:    7304
 k-point  34 :  -0.1429 0.2857 0.1429  plane waves:    7297
 k-point  35 :   0.4286 0.4286 0.1429  plane waves:    7294
 k-point  36 :  -0.4286 0.4286 0.1429  plane waves:    7275
 k-point  37 :  -0.2857 0.4286 0.1429  plane waves:    7297
 k-point  38 :  -0.1429 0.4286 0.1429  plane waves:    7309
 k-point  39 :  -0.4286-0.4286 0.1429  plane waves:    7284
 k-point  40 :  -0.2857-0.4286 0.1429  plane waves:    7316
 k-point  41 :  -0.1429-0.4286 0.1429  plane waves:    7299
 k-point  42 :  -0.2857-0.2857 0.1429  plane waves:    7311
 k-point  43 :  -0.1429-0.2857 0.1429  plane waves:    7308
 k-point  44 :  -0.1429-0.1429 0.1429  plane waves:    7297
 k-point  45 :  -0.0000 0.0000 0.2857  plane waves:    7302
 k-point  46 :   0.1429-0.0000 0.2857  plane waves:    7294
 k-point  47 :   0.2857 0.0000 0.2857  plane waves:    7295
 k-point  48 :   0.4286-0.0000 0.2857  plane waves:    7306
 k-point  49 :  -0.4286 0.0000 0.2857  plane waves:    7302
 k-point  50 :  -0.2857 0.0000 0.2857  plane waves:    7296
 k-point  51 :  -0.1429 0.0000 0.2857  plane waves:    7295
 k-point  52 :   0.1429 0.1429 0.2857  plane waves:    7298
 k-point  53 :   0.2857 0.1429 0.2857  plane waves:    7301
 k-point  54 :   0.4286 0.1429 0.2857  plane waves:    7292
 k-point  55 :  -0.4286 0.1429 0.2857  plane waves:    7298
 k-point  56 :  -0.2857 0.1429 0.2857  plane waves:    7297
 k-point  57 :  -0.1429 0.1429 0.2857  plane waves:    7304
 k-point  58 :   0.2857 0.2857 0.2857  plane waves:    7301
 k-point  59 :   0.4286 0.2857 0.2857  plane waves:    7295
 k-point  60 :  -0.4286 0.2857 0.2857  plane waves:    7297
[...]
 k-point  86 :   0.2857 0.2857 0.4286  plane waves:    7306
 k-point  87 :   0.4286 0.2857 0.4286  plane waves:    7316
 k-point  88 :  -0.4286 0.2857 0.4286  plane waves:    7299
 k-point  89 :  -0.2857 0.2857 0.4286  plane waves:    7299
 k-point  90 :  -0.1429 0.2857 0.4286  plane waves:    7284
 k-point  91 :   0.4286 0.4286 0.4286  plane waves:    7311
 k-point  92 :  -0.4286 0.4286 0.4286  plane waves:    7318
 k-point  93 :  -0.2857 0.4286 0.4286  plane waves:    7311
 k-point  94 :  -0.1429 0.4286 0.4286  plane waves:    7316
 k-point  95 :  -0.4286-0.4286 0.4286  plane waves:    7301
 k-point  96 :  -0.2857-0.4286 0.4286  plane waves:    7307
 k-point  97 :  -0.1429-0.4286 0.4286  plane waves:    7299
 k-point  98 :  -0.2857-0.2857 0.4286  plane waves:    7311
 k-point  99 :  -0.1429-0.2857 0.4286  plane waves:    7302
 k-point 100 :  -0.1429-0.1429 0.4286  plane waves:    7291

 maximum and minimum number of plane-waves per node :      3679     3615

 maximum number of plane-waves:      7318
 maximum index in each direction:
   IXMAX=   13   IYMAX=   13   IZMAX=   13
   IXMIN=  -13   IYMIN=  -13   IZMIN=  -13

 parallel 3D FFT for wavefunctions:
    minimum data exchange during FFTs selected (reduces bandwidth)
 parallel 3D FFT for charge:
    minimum data exchange during FFTs selected (reduces bandwidth)

 Broyden mixing: mesh for mixing (old mesh)
   NGX = 27   NGY = 27   NGZ = 27
  (NGX  =108   NGY  =108   NGZ  =108)
  gives a total of  19683 points

 initial charge density was supplied:
 charge density of overlapping atoms calculated
 number of electron     144.0000000 magnetization
 keeping initial charge density in first step

 Maximum index for augmentation-charges        20545 (set IRDMAX)

 First call to EWALD:  gamma=   0.294
 Maximum number of real-space cells 3x 3x 3
 Maximum number of reciprocal cells 3x 3x 3

--------------------------------------- Iteration      1(   1)  ---------------------------------------

 eigenvalue-minimisations  : 18240
 total energy-change (2. order) : 0.1722137E+04  (-0.9942756E+04)
 number of electron     144.0000000 magnetization
 augmentation part      144.0000000 magnetization

 Free energy of the ion-electron system (eV)
  alpha Z        PSCENC =       825.39742455
  Ewald energy   TEWEN  =    -11266.36436969
  -Hartree energ DENC   =     -4348.92709031
  -exchange      EXHF   =         0.00000000
  -V(xc)+E(xc)   XCENC  =       687.37981471
  PAW double counting   =     12389.78044861   -12344.92887842
  entropy T*S    EENTRO =        -0.00076267
  eigenvalues    EBANDS =       106.05012549
  atomic energy  EATOM  =     15673.75009126
  free energy    TOTEN  =      1722.13680354 eV

  energy without entropy =     1722.13756621  energy(sigma->0) =     1722.13718487

[...]

 eigenvalue-minimisations  : 19824
 total energy-change (2. order) :-0.1901570E+04  (-0.1837451E+04)
 number of electron     144.0000000 magnetization
 augmentation part      144.0000000 magnetization

[...]

 eigenvalue-minimisations  :     0
 total energy-change (2. order) :-0.2120942E-08  (-0.9094753E-09)
 number of electron     144.0000001 magnetization
 augmentation part       19.9828542 magnetization

[...]

--------------------------------------- Iteration      1(  38)  ---------------------------------------

 eigenvalue-minimisations  :     0
 total energy-change (2. order) : 0.9313226E-09  (-0.1895495E-09)
 number of electron     144.0000001 magnetization
 augmentation part       19.9828545 magnetization

 Free energy of the ion-electron system (eV)
  alpha Z        PSCENC =       825.39742455
  Ewald energy   TEWEN  =    -11266.36436969
  -Hartree energ DENC   =     -4418.70013272
  -exchange      EXHF   =         0.00000000
  -V(xc)+E(xc)   XCENC  =       713.46571492
  PAW double counting   =     26771.73270663   -26733.51856793
  entropy T*S    EENTRO =        -0.00186238
  eigenvalues    EBANDS =     -1758.17839432
  atomic energy  EATOM  =     15673.75009126
  free energy    TOTEN  =      -192.41738966 eV

  energy without entropy =     -192.41552729  energy(sigma->0) =     -192.41645848

  average scaling for gradient   0.8098

 average (electrostatic) potential at core
  the test charge radii are     0.7672  1.0818  0.9892
  (the norm of the test charge is              1.0000)
       1 -26.7225       2 -26.7225       3 -26.7226       4 -26.7225       5 -26.7226
       6 -26.7225       7 -26.7226       8 -26.7226       9 -75.9722      10 -75.9722
      11 -76.9135      12 -76.9136      13 -75.9721      14 -76.9135      15 -75.9721
      16 -76.9136      17 -83.0271      18 -83.0271

 E-fermi :   9.8842     XC(G=0): -12.8204     alpha+bet :-17.6856

 Fermi energy:         9.8842017570

 k-point     1 :       0.0000    0.0000    0.0000
  band No.  band energies     occupation
      1     -53.8669      2.00000
      2     -53.8631      2.00000
      3     -53.2065      2.00000
      4     -53.2064      2.00000
      5     -53.1579      2.00000
      6     -53.1578      2.00000
      7     -52.3987      2.00000
      8     -52.3982      2.00000
      9     -30.1228      2.00000
     10     -30.0985      2.00000
     11     -28.8146      2.00000
     12     -28.8145      2.00000
     13     -28.7283      2.00000
     14     -28.7125      2.00000
     15     -27.4924      2.00000
     16     -27.4923      2.00000
     17     -26.8604      2.00000
     18     -26.8603      2.00000
     19     -26.7432      2.00000
     20     -26.7431      2.00000
     21     -26.5770      2.00000
     22     -26.5412      2.00000
     23     -26.4764      2.00000
     24     -26.4667      2.00000
     25     -26.3867      2.00000
     26     -26.3853      2.00000
     27     -26.3852      2.00000
     28     -26.3137      2.00000
     29     -25.8488      2.00000
     30     -25.8487      2.00000
     31     -23.4119      2.00000
     32     -23.4033      2.00000
     33      -3.6745      2.00000
     34      -0.9891      2.00000
     35      -0.3677      2.00000
     36       0.8863      2.00000
     37       0.8864      2.00000
     38       1.5604      2.00000
     39       1.5605      2.00000
     40       1.7696      2.00000
     41       2.3587      2.00000
     42       2.5561      2.00000
     43       2.5561      2.00000
     44       2.8962      2.00000
     45       3.3310      2.00000
     46       3.3310      2.00000
     47       3.4026      2.00000
     48       4.0487      2.00000
     49       4.3880      2.00000
     50       4.3881      2.00000
     51       4.4463      2.00000
     52       4.8488      2.00000
     53       4.8488      2.00000
     54       4.8627      2.00000
     55       5.0816      2.00000
     56       5.1862      2.00000
     57       5.2080      2.00000
     58       5.4768      2.00000
     59       6.0656      2.00000
     60       7.4213      2.00000
[...]
     76      10.4726      0.00000
     77      10.4727      0.00000
     78      10.7084      0.00000
     79      10.8841      0.00000
     80      11.0680      0.00000
     81      11.2866      0.00000
     82      11.2866      0.00000
     83      11.3909      0.00000
     84      11.9121      0.00000
     85      11.9123      0.00000
     86      13.2091      0.00000
     87      13.2666      0.00000
     88      13.3237      0.00000
     89      13.8917      0.00000
     90      13.9732      0.00000

[...]

 k-point   100 :      -0.1429   -0.1429    0.4286
  band No.  band energies     occupation
      1     -53.8023      2.00000
      2     -53.8000      2.00000
      3     -53.4899      2.00000
      4     -53.4898      2.00000
      5     -52.8557      2.00000
      6     -52.8556      2.00000
      7     -52.4816      2.00000
      8     -52.4812      2.00000
      9     -29.8379      2.00000
     10     -29.8232      2.00000
     11     -28.7983      2.00000
     12     -28.7974      2.00000
     13     -28.7430      2.00000
     14     -28.7349      2.00000
     15     -28.4870      2.00000
     16     -28.4869      2.00000
     17     -26.8797      2.00000
     18     -26.8790      2.00000
     19     -26.6850      2.00000
     20     -26.6340      2.00000
     21     -26.5293      2.00000
     22     -26.4688      2.00000
     23     -26.4129      2.00000
     24     -26.4111      2.00000
     25     -26.2076      2.00000
     26     -26.1671      2.00000
     27     -25.9696      2.00000
     28     -25.9693      2.00000
     29     -25.5075      2.00000
     30     -25.5075      2.00000
     31     -23.8127      2.00000
     32     -23.8065      2.00000
     33      -3.1467      2.00000
     34      -1.9314      2.00000
     35      -0.0701      2.00000
     36       0.7727      2.00000
     37       1.1237      2.00000
     38       1.1473      2.00000
     39       1.6832      2.00000
     40       1.8662      2.00000
     41       1.9242      2.00000
     42       2.6052      2.00000
     43       2.6502      2.00000
     44       2.9713      2.00000
     45       2.9934      2.00000
     46       3.5559      2.00000
     47       3.7199      2.00000
     48       4.1631      2.00000
     49       4.2103      2.00000
     50       4.3363      2.00000
     51       4.5561      2.00000
     52       4.6387      2.00000
     53       4.7707      2.00000
     54       5.1106      2.00000
     55       5.1991      2.00000
     56       5.5867      2.00000
     57       5.9511      2.00000
     58       6.3119      2.00000
     59       6.4046      2.00000
     60       7.0651      2.00000
[...]
     76      10.6033      0.00000
     77      10.9814      0.00000
     78      11.0569      0.00000
     79      11.1641      0.00000
     80      11.5727      0.00000
     81      11.6536      0.00000
     82      11.9052      0.00000
     83      12.1152      0.00000
     84      12.2705      0.00000
     85      12.4604      0.00000
     86      12.5928      0.00000
     87      12.8835      0.00000
     88      13.1412      0.00000
     89      13.6573      0.00000
     90      14.5107      0.00000

 soft charge-density along one line, spin component           1
         0         1         2         3         4         5         6         7         8         9
 total charge-density along one line

------------------------ aborting loop because EDIFF is reached ----------------------------------------

  FREE ENERGIE OF THE ION-ELECTRON SYSTEM (eV)
  free  energy   TOTEN  =      -192.41738966 eV

  energy  without entropy=     -192.41552729  energy(sigma->0) =     -192.41645848

 writing wavefunctions