 vasp.6.2.0 18Jan21 (build Jan 05 2022 15:41:44) complex

 executed on             LinuxIFC date 2025.05.07  18:33:59

 INCAR:
   SYSTEM = routine with relax: pwdword
   ICHARG = 2
   NPAR = 6
   KPAR = 2
   NCORE = 2
   ADDGRID = T
   PREC = Acc
   ENCUT = 600
   METAGGA = R2SCAN
   LASPH = .TRUE.
   LMIXTAU = .FALSE.
   ALGO = A
   EDIFF = 1E-9
   NELM = 100
   NELMIN = 6
   IALGO = 38
   LREAL = F
   NSW = 0
   ISIF = -1
   ISMEAR = 0
   SIGMA = 0.02

 POTCAR:    PAW_PBE B 06Sep2000
 POTCAR:    PAW_PBE Mo_sv 02Feb2006
 POTCAR:    PAW_PBE Si 05Jan2001
|           W    W    AA    RRRRR   N    N  II  N    N   GGGG   !!!           |
|           W    W   A  A   R    R  NN   N  II  NN   N  G    G  !!!           |
|           W    W  A    A  R    R  N N  N  II  N N  N  G       !!!           |
|           W WW W  AAAAAA  RRRRR   N  N N  II  N  N N  G  GGG   !            |
|           WW  WW  A    A  R   R   N   NN  II  N   NN  G    G                |
|           W    W  A    A  R    R  N    N  II  N    N   GGGG   !!!           |
|     For optimal performance we recommend to set                             |
|       NCORE = 2 up to number-of-cores-per-socket                            |
|     This setting can greatly improve the performance of VASP for DFT.       |
|     The default, NCORE=1 might be grossly inefficient on modern             |
|     multi-core architectures or massively parallel machines. Do your        |
|     Unfortunately you need to use the default for GW and RPA                |
|     calculations (for HF NCORE is supported but not extensively tested      |
|     yet).                                                                   |

 POTCAR:    PAW_PBE B 06Sep2000
   VRHFIN =B: s2p1

   TITEL  = PAW_PBE B 06Sep2000
   POMASS =   10.811; ZVAL   =    3.000    mass and valenz
   ENMAX  =  318.614; ENMIN  =  238.960 eV

 POTCAR:    PAW_PBE Mo_sv 02Feb2006
   VRHFIN =Mo: 4p5s4d

   TITEL  = PAW_PBE Mo_sv 02Feb2006
   POMASS =   95.940; ZVAL   =   14.000    mass and valenz
   ENMAX  =  242.676; ENMIN  =  182.007 eV

 POTCAR:    PAW_PBE Si 05Jan2001
   VRHFIN =Si: s2p2

   TITEL  = PAW_PBE Si 05Jan2001
   POMASS =   28.085; ZVAL   =    4.000    mass and valenz
   ENMAX  =  245.345; ENMIN  =  184.009 eV

  PAW_PBE B 06Sep2000                   :
  PAW_PBE Mo_sv 02Feb2006               :
  PAW_PBE Si 05Jan2001                  :

 POSCAR: EA159
  positions in direct lattice

 METAGGA = R2SCA    LMAXTAU =  6    LMIXTAU =  F

 ion  position               nearest neighbor table
   1  0.000  0.500  0.000-   8 1.99   6 1.99  12 1.99  11 1.99   5 2.03   7 2.03
   2  0.500  0.500  0.500-  12 1.99  11 1.99   6 1.99   8 1.99   9 2.03  10 2.03
   3  0.500  0.000  0.000-   6 1.99   8 1.99  12 1.99  11 1.99   7 2.03   5 2.03
   4  0.000  0.000  0.500-  11 1.99  12 1.99   6 1.99   8 1.99   9 2.03  10 2.03
   5  0.748  0.248  0.997-   3 2.03   1 2.03   9 2.82  10 2.82  10 2.82   9 2.82   8 2.83   6 2.83
                            11 2.84  12 2.84  11 2.84  12 2.84   6 2.85   8 2.85
   6  0.750  0.250  0.500-   1 1.99   3 1.99   4 1.99   2 1.99  12 2.82  12 2.82  11 2.82  11 2.82
                             7 2.83  10 2.83   9 2.83   5 2.83   5 2.85   7 2.85   9 2.85  10 2.85
   7  0.252  0.752  0.003-   3 2.03   1 2.03   9 2.82  10 2.82   9 2.82  10 2.82   6 2.83   8 2.83
                            11 2.84  12 2.84  12 2.84  11 2.84   8 2.85   6 2.85
   8  0.250  0.750  0.500-   3 1.99   1 1.99   4 1.99   2 1.99  11 2.82  11 2.82  12 2.82  12 2.82
                             5 2.83   9 2.83  10 2.83   7 2.83   7 2.85   5 2.85  10 2.85   9 2.85
   9  0.248  0.252  0.500-   4 2.03   2 2.03   7 2.82   5 2.82   7 2.82   5 2.82   8 2.83   6 2.83
                            12 2.84  12 2.84  11 2.84  11 2.84   6 2.85   8 2.85
  10  0.752  0.748  0.500-   4 2.03   2 2.03   7 2.82   5 2.82   5 2.82   7 2.82   6 2.83   8 2.83
                            11 2.84  11 2.84  12 2.84  12 2.84   8 2.85   6 2.85
  11  0.250  0.250  0.000-   2 1.99   4 1.99   3 1.99   1 1.99   8 2.82   8 2.82   6 2.82   6 2.82
                             5 2.84   7 2.84  10 2.84  10 2.84   9 2.84   9 2.84   5 2.84   7 2.84
  12  0.750  0.750  0.000-   4 1.99   2 1.99   1 1.99   3 1.99   6 2.82   6 2.82   8 2.82   8 2.82
                             5 2.84   7 2.84   9 2.84   9 2.84  10 2.84  10 2.84   5 2.84   7 2.84

  LATTYP: Found a body centered tetragonal cell.
 ALAT       =     5.6313555491
 C/A-ratio  =     1.4390695147

  Lattice vectors:

 A1 = (   4.8910371473,   0.0000000000,  -2.8900170150)
 A2 = (  -1.5926980716,   4.6244521005,  -2.8900170150)
 A3 = (   0.0000000000,   0.0000000000,   5.6810600000)

Analysis of symmetry for initial positions (statically):
 Subroutine PRICEL returns:
 Original cell was already a primitive cell.

 Routine SETGRP: Setting up the symmetry group for a
 body centered tetragonal supercell.

 Subroutine GETGRP returns: Found  4 space group operations
 (whereof  2 operations were pure point group operations)
 out of a pool of 16 trial point group operations.

The static configuration has the point symmetry S_2 .
 The point group associated with its full space group is C_2h.

Analysis of symmetry for dynamics (positions and initial velocities):
 Subroutine PRICEL returns:
 Original cell was already a primitive cell.

 Routine SETGRP: Setting up the symmetry group for a
 body centered tetragonal supercell.

 Subroutine GETGRP returns: Found  4 space group operations
 (whereof  2 operations were pure point group operations)
 out of a pool of 16 trial point group operations.

The dynamic configuration has the point symmetry S_2 .
 The point group associated with its full space group is C_2h.

 Subroutine INISYM returns: Found  4 space group operations
 (whereof  2 operations are pure point group operations),
 and found     1 'primitive' translations

                                     Primitive cell

  volume of cell :     128.4963

  direct lattice vectors                    reciprocal lattice vectors
     4.891037147  0.000000000 -2.890017015     0.204455613  0.070416139  0.000000000
    -1.592698072  4.624452100 -2.890017015     0.000000000  0.216241833  0.000000000
     0.000000000  0.000000000  5.681060000     0.104008794  0.145826028  0.176023489

  length of vectors
     5.681060000  5.681060000  5.681060000     0.216241833  0.216241833  0.251132094

  position of ions in fractional coordinates (direct lattice)
     0.000000000  0.500000000  0.000000000
     0.500000000  0.500000000  0.500000000
     0.500000000  0.000000000  0.000000000
     0.000000000  0.000000000  0.500000000
     0.748300000  0.248300000  0.996610000
     0.750000000  0.250000000  0.500000000
     0.251700000  0.751700000  0.003390000
     0.250000000  0.750000000  0.500000000
     0.248300000  0.251700000  0.500000000
     0.751700000  0.748300000  0.500000000
     0.250000000  0.250000000  0.000000000
     0.750000000  0.750000000  0.000000000

  ion indices of the primitive-cell ions
   primitive index   ion index
                 1           1
                 2           2
                 3           3
                 4           4
                 5           5
                 6           6
                 7           7
                 8           8
                 9           9
                10          10
                11          11
                12          12

 KPOINTS: EA

Automatic generation of k-mesh.
 Grid dimensions read from file:
 generate k-points for:    8    8    9

 Generating k-lattice:

  Cartesian coordinates                     Fractional coordinates (reciprocal lattice)
     0.025556952  0.008802017  0.000000000     0.125000000  0.000000000  0.000000000
     0.000000000  0.027030229  0.000000000     0.000000000  0.125000000  0.000000000
     0.011556533  0.016202892  0.019558165    -0.000000000  0.000000000  0.111111111

  Length of vectors
     0.027030229  0.027030229  0.027903566

  Shift w.r.t. Gamma in fractional coordinates (k-lattice)
     0.000000000  0.000000000  0.000000000

 WARNING: IBZKPT: internal override: KBLOWUP is changed to .FALSE.
      ... skipping the blow-up phase ...

 Subroutine IBZKPT returns following result:

 Found    165 irreducible k-points:

 Following reciprocal coordinates:
            Coordinates               Weight
  0.000000  0.000000  0.000000      1.000000
  0.125000  0.000000  0.000000      4.000000
  0.250000  0.000000  0.000000      4.000000
  0.375000  0.000000  0.000000      4.000000
  0.500000  0.000000  0.000000      2.000000
  0.125000  0.125000  0.000000      2.000000
  0.250000  0.125000  0.000000      4.000000
  0.375000  0.125000  0.000000      4.000000
  0.500000  0.125000  0.000000      4.000000
 -0.375000  0.125000  0.000000      4.000000
 -0.250000  0.125000  0.000000      4.000000
 -0.125000  0.125000  0.000000      2.000000
  0.250000  0.250000  0.000000      2.000000
  0.375000  0.250000  0.000000      4.000000
  0.500000  0.250000  0.000000      4.000000
 -0.375000  0.250000  0.000000      4.000000
 -0.250000  0.250000  0.000000      2.000000
  0.375000  0.375000  0.000000      2.000000
  0.500000  0.375000  0.000000      4.000000
 -0.375000  0.375000  0.000000      2.000000
  0.500000  0.500000  0.000000      1.000000
  0.000000 -0.000000  0.111111      2.000000
  0.125000  0.000000  0.111111      4.000000
  0.250000  0.000000  0.111111      4.000000
  0.375000 -0.000000  0.111111      4.000000
  0.500000  0.000000  0.111111      4.000000
 -0.375000  0.000000  0.111111      4.000000
 -0.250000  0.000000  0.111111      4.000000
 -0.125000 -0.000000  0.111111      4.000000
  0.125000  0.125000  0.111111      2.000000
  0.250000  0.125000  0.111111      4.000000
  0.375000  0.125000  0.111111      4.000000
  0.500000  0.125000  0.111111      4.000000
 -0.375000  0.125000  0.111111      4.000000
 -0.250000  0.125000  0.111111      4.000000
 -0.125000  0.125000  0.111111      4.000000
  0.250000  0.250000  0.111111      2.000000
  0.375000  0.250000  0.111111      4.000000
  0.500000  0.250000  0.111111      4.000000
 -0.375000  0.250000  0.111111      4.000000
 -0.250000  0.250000  0.111111      4.000000
 -0.125000  0.250000  0.111111      4.000000
  0.375000  0.375000  0.111111      2.000000
  0.500000  0.375000  0.111111      4.000000
 -0.375000  0.375000  0.111111      4.000000
 -0.250000  0.375000  0.111111      4.000000
 -0.125000  0.375000  0.111111      4.000000
  0.500000  0.500000  0.111111      2.000000
 -0.375000  0.500000  0.111111      4.000000
 -0.250000  0.500000  0.111111      4.000000
 -0.125000  0.500000  0.111111      4.000000
 -0.375000 -0.375000  0.111111      2.000000
 -0.250000 -0.375000  0.111111      4.000000
 -0.125000 -0.375000  0.111111      4.000000
 -0.250000 -0.250000  0.111111      2.000000
 -0.125000 -0.250000  0.111111      4.000000
 -0.125000 -0.125000  0.111111      2.000000
 -0.000000 -0.000000  0.222222      2.000000
  0.125000 -0.000000  0.222222      4.000000
  0.250000 -0.000000  0.222222      4.000000
[...]
  0.375000  0.375000  0.444444      2.000000
  0.500000  0.375000  0.444444      4.000000
 -0.375000  0.375000  0.444444      4.000000
[...]
  -0.37500000  0.12500000  0.11111111       0.007
  -0.25000000  0.12500000  0.11111111       0.007
  -0.12500000  0.12500000  0.11111111       0.007
   0.25000000  0.25000000  0.11111111       0.003
   0.37500000  0.25000000  0.11111111       0.007
   0.50000000  0.25000000  0.11111111       0.007
  -0.37500000  0.25000000  0.11111111       0.007
  -0.25000000  0.25000000  0.11111111       0.007
  -0.12500000  0.25000000  0.11111111       0.007
   0.37500000  0.37500000  0.11111111       0.003
   0.50000000  0.37500000  0.11111111       0.007
  -0.37500000  0.37500000  0.11111111       0.007
  -0.25000000  0.37500000  0.11111111       0.007
  -0.12500000  0.37500000  0.11111111       0.007
   0.50000000  0.50000000  0.11111111       0.003
  -0.37500000  0.50000000  0.11111111       0.007
  -0.25000000  0.50000000  0.11111111       0.007
  -0.12500000  0.50000000  0.11111111       0.007
  -0.37500000 -0.37500000  0.11111111       0.003
  -0.25000000 -0.37500000  0.11111111       0.007
  -0.12500000 -0.37500000  0.11111111       0.007
  -0.25000000 -0.25000000  0.11111111       0.003
  -0.12500000 -0.25000000  0.11111111       0.007
  -0.12500000 -0.12500000  0.11111111       0.003
  -0.00000000 -0.00000000  0.22222222       0.003
   0.12500000 -0.00000000  0.22222222       0.007
   0.25000000 -0.00000000  0.22222222       0.007
[...]
   0.37500000  0.37500000  0.44444444       0.003
   0.50000000  0.37500000  0.44444444       0.007
  -0.37500000  0.37500000  0.44444444       0.007
  -0.25000000  0.37500000  0.44444444       0.007
  -0.12500000  0.37500000  0.44444444       0.007
   0.50000000  0.50000000  0.44444444       0.003
  -0.37500000  0.50000000  0.44444444       0.007
  -0.25000000  0.50000000  0.44444444       0.007
  -0.12500000  0.50000000  0.44444444       0.007
  -0.37500000 -0.37500000  0.44444444       0.003
  -0.25000000 -0.37500000  0.44444444       0.007
  -0.12500000 -0.37500000  0.44444444       0.007
  -0.25000000 -0.25000000  0.44444444       0.003
  -0.12500000 -0.25000000  0.44444444       0.007
  -0.12500000 -0.12500000  0.44444444       0.003

 position of ions in fractional coordinates (direct lattice)
   0.00000000  0.50000000  0.00000000
   0.50000000  0.50000000  0.50000000
   0.50000000  0.00000000  0.00000000
   0.00000000  0.00000000  0.50000000
   0.74830000  0.24830000  0.99661000
   0.75000000  0.25000000  0.50000000
   0.25170000  0.75170000  0.00339000
   0.25000000  0.75000000  0.50000000
   0.24830000  0.25170000  0.50000000
   0.75170000  0.74830000  0.50000000
   0.25000000  0.25000000  0.00000000
   0.75000000  0.75000000  0.00000000

 position of ions in cartesian coordinates  (Angst):
  -0.79634904  2.31222605 -1.44500851
   1.64916954  2.31222605 -0.04948702
   2.44551857  0.00000000 -1.44500851
   0.00000000  0.00000000  2.84053000
   3.26449617  1.14825146  2.78161025
   3.27010334  1.15611303 -0.04948702
   0.03384291  3.47620064 -2.88058428
   0.02823573  3.46833908 -0.04948702
   0.81356242  1.16397459  1.39552149
   2.48477666  3.46047751 -1.49449552
   0.82458477  1.15611303 -1.44500851
   2.47375431  3.46833908 -4.33502552

 k-point   1 :   0.0000 0.0000 0.0000  plane waves:    4305
 k-point   2 :   0.1250 0.0000 0.0000  plane waves:    4299
 k-point   3 :   0.2500 0.0000 0.0000  plane waves:    4277
 k-point   4 :   0.3750 0.0000 0.0000  plane waves:    4288
 k-point   5 :   0.5000 0.0000 0.0000  plane waves:    4302
 k-point   6 :   0.1250 0.1250 0.0000  plane waves:    4296
 k-point   7 :   0.2500 0.1250 0.0000  plane waves:    4287
 k-point   8 :   0.3750 0.1250 0.0000  plane waves:    4296
 k-point   9 :   0.5000 0.1250 0.0000  plane waves:    4296
 k-point  10 :  -0.3750 0.1250 0.0000  plane waves:    4284
 k-point  11 :  -0.2500 0.1250 0.0000  plane waves:    4295
 k-point  12 :  -0.1250 0.1250 0.0000  plane waves:    4290
 k-point  13 :   0.2500 0.2500 0.0000  plane waves:    4288
 k-point  14 :   0.3750 0.2500 0.0000  plane waves:    4287
 k-point  15 :   0.5000 0.2500 0.0000  plane waves:    4289
 k-point  16 :  -0.3750 0.2500 0.0000  plane waves:    4278
 k-point  17 :  -0.2500 0.2500 0.0000  plane waves:    4280
 k-point  18 :   0.3750 0.3750 0.0000  plane waves:    4288
 k-point  19 :   0.5000 0.3750 0.0000  plane waves:    4288
 k-point  20 :  -0.3750 0.3750 0.0000  plane waves:    4294
 k-point  21 :   0.5000 0.5000 0.0000  plane waves:    4284
 k-point  22 :   0.0000-0.0000 0.1111  plane waves:    4290
 k-point  23 :   0.1250 0.0000 0.1111  plane waves:    4297
 k-point  24 :   0.2500 0.0000 0.1111  plane waves:    4283
 k-point  25 :   0.3750-0.0000 0.1111  plane waves:    4294
 k-point  26 :   0.5000 0.0000 0.1111  plane waves:    4296
 k-point  27 :  -0.3750 0.0000 0.1111  plane waves:    4292
 k-point  28 :  -0.2500 0.0000 0.1111  plane waves:    4298
 k-point  29 :  -0.1250-0.0000 0.1111  plane waves:    4301
 k-point  30 :   0.1250 0.1250 0.1111  plane waves:    4286
 k-point  31 :   0.2500 0.1250 0.1111  plane waves:    4286
 k-point  32 :   0.3750 0.1250 0.1111  plane waves:    4291
 k-point  33 :   0.5000 0.1250 0.1111  plane waves:    4288
 k-point  34 :  -0.3750 0.1250 0.1111  plane waves:    4282
 k-point  35 :  -0.2500 0.1250 0.1111  plane waves:    4292
 k-point  36 :  -0.1250 0.1250 0.1111  plane waves:    4313
 k-point  37 :   0.2500 0.2500 0.1111  plane waves:    4289
 k-point  38 :   0.3750 0.2500 0.1111  plane waves:    4285
 k-point  39 :   0.5000 0.2500 0.1111  plane waves:    4280
 k-point  40 :  -0.3750 0.2500 0.1111  plane waves:    4272
 k-point  41 :  -0.2500 0.2500 0.1111  plane waves:    4293
 k-point  42 :  -0.1250 0.2500 0.1111  plane waves:    4297
 k-point  43 :   0.3750 0.3750 0.1111  plane waves:    4284
 k-point  44 :   0.5000 0.3750 0.1111  plane waves:    4291
 k-point  45 :  -0.3750 0.3750 0.1111  plane waves:    4284
 k-point  46 :  -0.2500 0.3750 0.1111  plane waves:    4283
 k-point  47 :  -0.1250 0.3750 0.1111  plane waves:    4282
 k-point  48 :   0.5000 0.5000 0.1111  plane waves:    4282
 k-point  49 :  -0.3750 0.5000 0.1111  plane waves:    4287
 k-point  50 :  -0.2500 0.5000 0.1111  plane waves:    4292
 k-point  51 :  -0.1250 0.5000 0.1111  plane waves:    4292
 k-point  52 :  -0.3750-0.3750 0.1111  plane waves:    4280
 k-point  53 :  -0.2500-0.3750 0.1111  plane waves:    4292
 k-point  54 :  -0.1250-0.3750 0.1111  plane waves:    4285
 k-point  55 :  -0.2500-0.2500 0.1111  plane waves:    4275
 k-point  56 :  -0.1250-0.2500 0.1111  plane waves:    4293
 k-point  57 :  -0.1250-0.1250 0.1111  plane waves:    4328
 k-point  58 :  -0.0000-0.0000 0.2222  plane waves:    4274
 k-point  59 :   0.1250-0.0000 0.2222  plane waves:    4289
 k-point  60 :   0.2500-0.0000 0.2222  plane waves:    4289
[...]
 k-point 151 :   0.3750 0.3750 0.4444  plane waves:    4280
 k-point 152 :   0.5000 0.3750 0.4444  plane waves:    4272
 k-point 153 :  -0.3750 0.3750 0.4444  plane waves:    4270
 k-point 154 :  -0.2500 0.3750 0.4444  plane waves:    4278
 k-point 155 :  -0.1250 0.3750 0.4444  plane waves:    4288
 k-point 156 :   0.5000 0.5000 0.4444  plane waves:    4264
 k-point 157 :  -0.3750 0.5000 0.4444  plane waves:    4266
 k-point 158 :  -0.2500 0.5000 0.4444  plane waves:    4275
 k-point 159 :  -0.1250 0.5000 0.4444  plane waves:    4295
 k-point 160 :  -0.3750-0.3750 0.4444  plane waves:    4274
 k-point 161 :  -0.2500-0.3750 0.4444  plane waves:    4281
 k-point 162 :  -0.1250-0.3750 0.4444  plane waves:    4295
 k-point 163 :  -0.2500-0.2500 0.4444  plane waves:    4286
 k-point 164 :  -0.1250-0.2500 0.4444  plane waves:    4289
 k-point 165 :  -0.1250-0.1250 0.4444  plane waves:    4275

 maximum and minimum number of plane-waves per node :      2190     2093

 maximum number of plane-waves:      4328
 maximum index in each direction:
   IXMAX=   11   IYMAX=   11   IZMAX=   11
   IXMIN=  -11   IYMIN=  -11   IZMIN=  -11

 parallel 3D FFT for wavefunctions:
    minimum data exchange during FFTs selected (reduces bandwidth)
 parallel 3D FFT for charge:
    minimum data exchange during FFTs selected (reduces bandwidth)

 Broyden mixing: mesh for mixing (old mesh)
   NGX = 23   NGY = 23   NGZ = 23
  (NGX  = 96   NGY  = 96   NGZ  = 96)
  gives a total of  12167 points

 initial charge density was supplied:
 charge density of overlapping atoms calculated
 number of electron     104.0000000 magnetization
 keeping initial charge density in first step

 Maximum index for augmentation-charges        24404 (set IRDMAX)

 First call to EWALD:  gamma=   0.351
 Maximum number of real-space cells 3x 3x 3
 Maximum number of reciprocal cells 3x 3x 3

--------------------------------------- Iteration      1(   1)  ---------------------------------------

 eigenvalue-minimisations  : 21804
 total energy-change (2. order) : 0.1139380E+04  (-0.7202257E+04)
 number of electron     104.0000000 magnetization
 augmentation part      104.0000000 magnetization

 Free energy of the ion-electron system (eV)
  alpha Z        PSCENC =       727.09646150
  Ewald energy   TEWEN  =    -10172.31427905
  -Hartree energ DENC   =     -2126.61505871
  -exchange      EXHF   =         0.00000000
  -V(xc)+E(xc)   XCENC  =       494.43945965
  PAW double counting   =      9250.47132855    -9210.50234729
  entropy T*S    EENTRO =        -0.00054371
  eigenvalues    EBANDS =       512.29877219
  atomic energy  EATOM  =     11664.50664672
  free energy    TOTEN  =      1139.38043987 eV

  energy without entropy =     1139.38098357  energy(sigma->0) =     1139.38071172

[...]

 eigenvalue-minimisations  : 24090
 total energy-change (2. order) :-0.1328746E+04  (-0.1298360E+04)
 number of electron     104.0000000 magnetization
 augmentation part      104.0000000 magnetization

[...]

 eigenvalue-minimisations  :     0
 total energy-change (2. order) : 0.1056833E-08  ( 0.1296453E-09)
 number of electron     104.0000001 magnetization
 augmentation part       14.3927102 magnetization

[...]

 eigenvalue-minimisations  :     0
 total energy-change (2. order) :-0.1467924E-08  (-0.1825132E-10)
 number of electron     104.0000001 magnetization
 augmentation part       14.3927102 magnetization

[...]

--------------------------------------- Iteration      1(  36)  ---------------------------------------

 eigenvalue-minimisations  :     0
 total energy-change (2. order) : 0.4165486E-09  (-0.2752227E-10)
 number of electron     104.0000001 magnetization
 augmentation part       14.3927101 magnetization

 Free energy of the ion-electron system (eV)
  alpha Z        PSCENC =       727.09646150
  Ewald energy   TEWEN  =    -10172.31427905
  -Hartree energ DENC   =     -1986.33868363
  -exchange      EXHF   =         0.00000000
  -V(xc)+E(xc)   XCENC  =       505.34754475
  PAW double counting   =     15373.85843083   -15356.87068698
  entropy T*S    EENTRO =        -0.00097969
  eigenvalues    EBANDS =      -948.66171169
  atomic energy  EATOM  =     11664.50664672
  free energy    TOTEN  =      -193.37725725 eV

  energy without entropy =     -193.37627756  energy(sigma->0) =     -193.37676740

  average scaling for gradient   1.8215

 average (electrostatic) potential at core
  the test charge radii are     0.7672  1.0818  0.9892
  (the norm of the test charge is              1.0000)
       1 -20.2663       2 -20.2740       3 -20.2665       4 -20.2740       5 -73.3176
       6 -73.1301       7 -73.3176       8 -73.1301       9 -73.3193      10 -73.3193
      11 -80.1510      12 -80.1510

 E-fermi :  13.3027     XC(G=0): -14.6516     alpha+bet :-21.7774

 Fermi energy:        13.3027430809

 k-point     1 :       0.0000    0.0000    0.0000
  band No.  band energies     occupation
      1     -49.5985      2.00000
      2     -49.4426      2.00000
      3     -49.4409      2.00000
      4     -49.3758      2.00000
      5     -49.3535      2.00000
      6     -49.3075      2.00000
      7     -23.6707      2.00000
      8     -23.6682      2.00000
      9     -23.5698      2.00000
     10     -23.5317      2.00000
     11     -23.5300      2.00000
     12     -23.4861      2.00000
     13     -23.3792      2.00000
     14     -23.0186      2.00000
     15     -22.9724      2.00000
     16     -22.9717      2.00000
     17     -22.6601      2.00000
     18     -22.6576      2.00000
     19     -22.5003      2.00000
     20     -22.4422      2.00000
     21     -22.4409      2.00000
     22     -22.3747      2.00000
     23     -22.2723      2.00000
     24     -22.2316      2.00000
     25      -1.2428      2.00000
     26       0.6812      2.00000
     27       3.3724      2.00000
     28       5.1539      2.00000
     29       5.1571      2.00000
     30       6.0335      2.00000
     31       6.5010      2.00000
     32       6.5040      2.00000
     33       7.1570      2.00000
     34       7.2364      2.00000
     35       7.2380      2.00000
     36       7.3556      2.00000
     37       7.6209      2.00000
     38       8.5887      2.00000
     39       8.5898      2.00000
     40       8.7491      2.00000
     41       9.6298      2.00000
     42       9.6553      2.00000
     43       9.9841      2.00000
     44       9.9848      2.00000
     45      11.0644      2.00000
     46      11.5931      2.00000
     47      12.5558      2.00000
     48      12.9576      2.00000
     49      12.9586      2.00000
     50      13.0495      2.00000
     51      13.0505      2.00000
     52      13.3322      0.03753
     53      14.2694      0.00000
     54      14.7738      0.00000
     55      15.0849      0.00000
     56      15.2660      0.00000
     57      15.3505      0.00000
     58      15.4500      0.00000
     59      15.4536      0.00000
     60      15.8166      0.00000
     61      16.1769      0.00000
     62      16.2777      0.00000
     63      16.6776      0.00000
     64      16.6776      0.00000
     65      18.2465      0.00000
     66      18.5122      0.00000

[...]

 k-point   165 :      -0.1250   -0.1250    0.4444
  band No.  band energies     occupation
      1     -49.5386      2.00000
      2     -49.4522      2.00000
      3     -49.4435      2.00000
      4     -49.4008      2.00000
      5     -49.3652      2.00000
      6     -49.3211      2.00000
      7     -23.6419      2.00000
      8     -23.4696      2.00000
      9     -23.4590      2.00000
     10     -23.4310      2.00000
     11     -23.2842      2.00000
     12     -23.2550      2.00000
     13     -23.1761      2.00000
     14     -23.0815      2.00000
     15     -22.9554      2.00000
     16     -22.9498      2.00000
     17     -22.9288      2.00000
     18     -22.7166      2.00000
     19     -22.6996      2.00000
     20     -22.6876      2.00000
     21     -22.5882      2.00000
     22     -22.5702      2.00000
     23     -22.3328      2.00000
     24     -22.2761      2.00000
     25      -0.1055      2.00000
     26       1.1014      2.00000
     27       2.6766      2.00000
     28       3.0142      2.00000
     29       4.8907      2.00000
     30       5.9851      2.00000
     31       6.3858      2.00000
     32       6.5145      2.00000
     33       6.9633      2.00000
     34       7.7336      2.00000
     35       7.9923      2.00000
     36       8.4522      2.00000
     37       9.0655      2.00000
     38       9.0845      2.00000
     39       9.2307      2.00000
     40       9.2310      2.00000
     41      10.2377      2.00000
     42      10.2938      2.00000
     43      10.3407      2.00000
     44      10.3884      2.00000
     45      11.1700      2.00000
     46      11.3151      2.00000
     47      11.4302      2.00000
     48      12.2214      2.00000
     49      12.2319      2.00000
     50      12.8255      2.00000
     51      12.8722      2.00000
     52      13.2159      2.00000
     53      13.2980      1.26370
     54      13.3313      0.04318
     55      13.9579      0.00000
     56      14.3905      0.00000
     57      14.8940      0.00000
     58      14.9908      0.00000
     59      15.0766      0.00000
     60      15.4850      0.00000
     61      15.7941      0.00000
     62      15.9690      0.00000
     63      16.1348      0.00000
     64      16.7576      0.00000
     65      16.7656      0.00000
     66      17.1856      0.00000

 soft charge-density along one line, spin component           1
         0         1         2         3         4         5         6         7         8         9
 total charge-density along one line

------------------------ aborting loop because EDIFF is reached ----------------------------------------

  FREE ENERGIE OF THE ION-ELECTRON SYSTEM (eV)
  free  energy   TOTEN  =      -193.37725725 eV

  energy  without entropy=     -193.37627756  energy(sigma->0) =     -193.37676740

 writing wavefunctions