 vasp.6.2.0 18Jan21 (build Jan 05 2022 15:41:44) complex

 executed on             LinuxIFC date 2025.05.07  16:12:24

 INCAR:
   SYSTEM = routine with relax: pwdword
   ICHARG = 2
   NPAR = 6
   KPAR = 2
   NCORE = 2
   ADDGRID = T
   PREC = Acc
   ENCUT = 600
   METAGGA = R2SCAN
   LASPH = .TRUE.
   LMIXTAU = .FALSE.
   ALGO = A
   EDIFF = 1E-9
   NELM = 100
   NELMIN = 6
   IALGO = 38
   LREAL = F
   NSW = 0
   ISIF = -1
   ISMEAR = 0
   SIGMA = 0.02

 POTCAR:    PAW_PBE B 06Sep2000
 POTCAR:    PAW_PBE Mo_sv 02Feb2006
 POTCAR:    PAW_PBE Si 05Jan2001
|           W    W    AA    RRRRR   N    N  II  N    N   GGGG   !!!           |
|           W    W   A  A   R    R  NN   N  II  NN   N  G    G  !!!           |
|           W    W  A    A  R    R  N N  N  II  N N  N  G       !!!           |
|           W WW W  AAAAAA  RRRRR   N  N N  II  N  N N  G  GGG   !            |
|           WW  WW  A    A  R   R   N   NN  II  N   NN  G    G                |
|           W    W  A    A  R    R  N    N  II  N    N   GGGG   !!!           |
|     For optimal performance we recommend to set                             |
|       NCORE = 2 up to number-of-cores-per-socket                            |
|     This setting can greatly improve the performance of VASP for DFT.       |
|     The default, NCORE=1 might be grossly inefficient on modern             |
|     multi-core architectures or massively parallel machines. Do your        |
|     Unfortunately you need to use the default for GW and RPA                |
|     calculations (for HF NCORE is supported but not extensively tested      |
|     yet).                                                                   |

 POTCAR:    PAW_PBE B 06Sep2000
   VRHFIN =B: s2p1

   TITEL  = PAW_PBE B 06Sep2000
   POMASS =   10.811; ZVAL   =    3.000    mass and valenz
   ENMAX  =  318.614; ENMIN  =  238.960 eV

 POTCAR:    PAW_PBE Mo_sv 02Feb2006
   VRHFIN =Mo: 4p5s4d

   TITEL  = PAW_PBE Mo_sv 02Feb2006
   POMASS =   95.940; ZVAL   =   14.000    mass and valenz
   ENMAX  =  242.676; ENMIN  =  182.007 eV

 POTCAR:    PAW_PBE Si 05Jan2001
   VRHFIN =Si: s2p2

   TITEL  = PAW_PBE Si 05Jan2001
   POMASS =   28.085; ZVAL   =    4.000    mass and valenz
   ENMAX  =  245.345; ENMIN  =  184.009 eV

  PAW_PBE B 06Sep2000                   :
  PAW_PBE Mo_sv 02Feb2006               :
  PAW_PBE Si 05Jan2001                  :

 POSCAR: EA74
  positions in direct lattice

 METAGGA = R2SCA    LMAXTAU =  6    LMIXTAU =  F

 ion  position               nearest neighbor table
   1  0.173  0.508  0.500-   8 1.68   7 1.72  15 2.16  16 2.28  10 2.57   9 2.57
   2  0.827  0.492  0.500-   7 1.68   8 1.72  13 2.16  16 2.28   9 2.57  10 2.57
   3  0.508  0.008  0.335-   5 1.68   4 1.72   9 2.16  14 2.28  13 2.57  15 2.57
   4  0.327  0.827  0.335-   6 1.68   3 1.72   9 2.16  11 2.28  13 2.57  15 2.57
   5  0.673  0.173  0.665-   3 1.68   6 1.72  10 2.16  11 2.28  13 2.57  15 2.57
   6  0.492  0.992  0.665-   4 1.68   5 1.72  10 2.16  14 2.28  13 2.57  15 2.57
   7  0.992  0.327  0.500-   2 1.68   1 1.72  15 2.16  12 2.28   9 2.57  10 2.57
   8  0.008  0.673  0.500-   1 1.68   2 1.72  13 2.16  12 2.28  10 2.57   9 2.57
   9  0.223  0.723  0.945-   4 2.16   3 2.16  11 2.39  14 2.39   7 2.57   2 2.57   8 2.57   1 2.57

  10  0.777  0.277  0.055-   5 2.16   6 2.16  11 2.39  14 2.39   8 2.57   1 2.57   7 2.57   2 2.57

[...]

  16  0.500  0.500  0.500-   1 2.28   2 2.28  13 2.39  15 2.39  18 2.55  17 2.55
  17  0.250  0.250  0.000-  11 2.55  14 2.55  16 2.55  12 2.55
  18  0.750  0.750  0.000-  11 2.55  14 2.55  12 2.55  16 2.55

  LATTYP: Found a body centered tetragonal cell.
 ALAT       =     7.2134278119
 C/A-ratio  =     1.3145208881

  Lattice vectors:

 A1 = (   6.1705648277,   0.0000000000,  -3.2278134121)
 A2 = (  -2.2619252151,   5.7410421192,  -3.2278134121)
 A3 = (   0.0000000000,   0.0000000000,   6.9638100000)

Analysis of symmetry for initial positions (statically):
 Subroutine PRICEL returns:
 Original cell was already a primitive cell.

 Routine SETGRP: Setting up the symmetry group for a
 body centered tetragonal supercell.

 Subroutine GETGRP returns: Found  4 space group operations
 (whereof  2 operations were pure point group operations)
 out of a pool of 16 trial point group operations.

The static configuration has the point symmetry S_2 .
 The point group associated with its full space group is C_2h.

Analysis of symmetry for dynamics (positions and initial velocities):
 Subroutine PRICEL returns:
 Original cell was already a primitive cell.

 Routine SETGRP: Setting up the symmetry group for a
 body centered tetragonal supercell.

 Subroutine GETGRP returns: Found  4 space group operations
 (whereof  2 operations were pure point group operations)
 out of a pool of 16 trial point group operations.

The dynamic configuration has the point symmetry S_2 .
 The point group associated with its full space group is C_2h.

 Subroutine INISYM returns: Found  4 space group operations
 (whereof  2 operations are pure point group operations),
 and found     1 'primitive' translations

                                     Primitive cell

  volume of cell :     246.6963

  direct lattice vectors                    reciprocal lattice vectors
     6.170564828  0.000000000 -3.227813412     0.162059719  0.063850248  0.000000000
    -2.261925215  5.741042119 -3.227813412     0.000000000  0.174184404  0.000000000
     0.000000000  0.000000000  6.963810000     0.075116715  0.110332051  0.143599553

  length of vectors
     6.963810000  6.963810000  6.963810000     0.174184404  0.174184404  0.196052325

  position of ions in fractional coordinates (direct lattice)
     0.173240000  0.508080000  0.500000000
     0.826760000  0.491920000  0.500000000
     0.508080000  0.008080000  0.334840000
     0.326760000  0.826760000  0.334840000
     0.673240000  0.173240000  0.665160000
     0.491920000  0.991920000  0.665160000
     0.991920000  0.326760000  0.500000000
     0.008080000  0.673240000  0.500000000
     0.222650000  0.722650000  0.945310000
     0.777350000  0.277350000  0.054690000
     0.000000000  0.500000000  0.000000000
     0.000000000  0.000000000  0.500000000
     0.722650000  0.777350000  0.500000000
     0.500000000  0.000000000  0.000000000
     0.277350000  0.222650000  0.500000000
     0.500000000  0.500000000  0.500000000
     0.250000000  0.250000000  0.000000000
     0.750000000  0.750000000  0.000000000

  ion indices of the primitive-cell ions
   primitive index   ion index
                 1           1
                 2           2
                 3           3
                 4           4
                 5           5
                 6           6
                 7           7
                 8           8
                 9           9
                10          10
                11          11
                12          12
                13          13
                14          14
                15          15
                16          16
                17          17
                18          18

 KPOINTS: EA

Automatic generation of k-mesh.
 Grid dimensions read from file:
 generate k-points for:    6    6    7

 Generating k-lattice:

  Cartesian coordinates                     Fractional coordinates (reciprocal lattice)
     0.027009953  0.010641708  0.000000000     0.166666667  0.000000000  0.000000000
     0.000000000  0.029030734  0.000000000     0.000000000  0.166666667  0.000000000
     0.010730959  0.015761722  0.020514222     0.000000000  0.000000000  0.142857143

  Length of vectors
     0.029030734  0.029030734  0.028007475

  Shift w.r.t. Gamma in fractional coordinates (k-lattice)
     0.000000000  0.000000000  0.000000000

 WARNING: IBZKPT: internal override: KBLOWUP is changed to .FALSE.
      ... skipping the blow-up phase ...

 Subroutine IBZKPT returns following result:

 Found     76 irreducible k-points:

 Following reciprocal coordinates:
            Coordinates               Weight
  0.000000  0.000000  0.000000      1.000000
  0.166667 -0.000000  0.000000      4.000000
  0.333333 -0.000000  0.000000      4.000000
  0.500000 -0.000000  0.000000      2.000000
  0.166667  0.166667  0.000000      2.000000
  0.333333  0.166667  0.000000      4.000000
  0.500000  0.166667  0.000000      4.000000
 -0.333333  0.166667  0.000000      4.000000
 -0.166667  0.166667  0.000000      2.000000
  0.333333  0.333333  0.000000      2.000000
  0.500000  0.333333  0.000000      4.000000
 -0.333333  0.333333  0.000000      2.000000
  0.500000  0.500000  0.000000      1.000000
  0.000000  0.000000  0.142857      2.000000
  0.166667  0.000000  0.142857      4.000000
  0.333333  0.000000  0.142857      4.000000
  0.500000  0.000000  0.142857      4.000000
 -0.333333  0.000000  0.142857      4.000000
 -0.166667  0.000000  0.142857      4.000000
  0.166667  0.166667  0.142857      2.000000
  0.333333  0.166667  0.142857      4.000000
  0.500000  0.166667  0.142857      4.000000
 -0.333333  0.166667  0.142857      4.000000
 -0.166667  0.166667  0.142857      4.000000
  0.333333  0.333333  0.142857      2.000000
  0.500000  0.333333  0.142857      4.000000
 -0.333333  0.333333  0.142857      4.000000
 -0.166667  0.333333  0.142857      4.000000
  0.500000  0.500000  0.142857      2.000000
 -0.333333  0.500000  0.142857      4.000000
 -0.166667  0.500000  0.142857      4.000000
 -0.333333 -0.333333  0.142857      2.000000
 -0.166667 -0.333333  0.142857      4.000000
 -0.166667 -0.166667  0.142857      2.000000
  0.000000  0.000000  0.285714      2.000000
  0.166667  0.000000  0.285714      4.000000
  0.333333 -0.000000  0.285714      4.000000
  0.500000 -0.000000  0.285714      4.000000
 -0.333333  0.000000  0.285714      4.000000
 -0.166667  0.000000  0.285714      4.000000
  0.166667  0.166667  0.285714      2.000000
  0.333333  0.166667  0.285714      4.000000
  0.500000  0.166667  0.285714      4.000000
 -0.333333  0.166667  0.285714      4.000000
 -0.166667  0.166667  0.285714      4.000000
  0.333333  0.333333  0.285714      2.000000
  0.500000  0.333333  0.285714      4.000000
 -0.333333  0.333333  0.285714      4.000000
 -0.166667  0.333333  0.285714      4.000000
  0.500000  0.500000  0.285714      2.000000
 -0.333333  0.500000  0.285714      4.000000
 -0.166667  0.500000  0.285714      4.000000
 -0.333333 -0.333333  0.285714      2.000000
 -0.166667 -0.333333  0.285714      4.000000
 -0.166667 -0.166667  0.285714      2.000000
  0.000000  0.000000  0.428571      2.000000
  0.166667  0.000000  0.428571      4.000000
  0.333333 -0.000000  0.428571      4.000000
  0.500000  0.000000  0.428571      4.000000
 -0.333333  0.000000  0.428571      4.000000
 -0.166667  0.000000  0.428571      4.000000
  0.166667  0.166667  0.428571      2.000000
  0.333333  0.166667  0.428571      4.000000
  0.500000  0.166667  0.428571      4.000000
 -0.333333  0.166667  0.428571      4.000000
 -0.166667  0.166667  0.428571      4.000000
  0.333333  0.333333  0.428571      2.000000
  0.500000  0.333333  0.428571      4.000000
 -0.333333  0.333333  0.428571      4.000000
 -0.166667  0.333333  0.428571      4.000000
  0.500000  0.500000  0.428571      2.000000
[...]
  -0.16666667 -0.16666667  0.28571429       0.008
   0.00000000  0.00000000  0.42857143       0.008
   0.16666667  0.00000000  0.42857143       0.016
   0.33333333 -0.00000000  0.42857143       0.016
   0.50000000  0.00000000  0.42857143       0.016
  -0.33333333  0.00000000  0.42857143       0.016
  -0.16666667  0.00000000  0.42857143       0.016
   0.16666667  0.16666667  0.42857143       0.008
   0.33333333  0.16666667  0.42857143       0.016
   0.50000000  0.16666667  0.42857143       0.016
  -0.33333333  0.16666667  0.42857143       0.016
  -0.16666667  0.16666667  0.42857143       0.016
   0.33333333  0.33333333  0.42857143       0.008
   0.50000000  0.33333333  0.42857143       0.016
  -0.33333333  0.33333333  0.42857143       0.016
  -0.16666667  0.33333333  0.42857143       0.016
   0.50000000  0.50000000  0.42857143       0.008
  -0.33333333  0.50000000  0.42857143       0.016
  -0.16666667  0.50000000  0.42857143       0.016
  -0.33333333 -0.33333333  0.42857143       0.008
  -0.16666667 -0.33333333  0.42857143       0.016
  -0.16666667 -0.16666667  0.42857143       0.008

 position of ions in fractional coordinates (direct lattice)
   0.17324000  0.50808000  0.50000000
   0.82676000  0.49192000  0.50000000
   0.50808000  0.00808000  0.33484000
   0.32676000  0.82676000  0.33484000
   0.67324000  0.17324000  0.66516000
   0.49192000  0.99192000  0.66516000
   0.99192000  0.32676000  0.50000000
   0.00808000  0.67324000  0.50000000
   0.22265000  0.72265000  0.94531000
   0.77735000  0.27735000  0.05469000
   0.00000000  0.50000000  0.00000000
   0.00000000  0.00000000  0.50000000
   0.72265000  0.77735000  0.50000000
   0.50000000  0.00000000  0.00000000
   0.27735000  0.22265000  0.50000000
   0.50000000  0.50000000  0.50000000
   0.25000000  0.25000000  0.00000000
   0.75000000  0.75000000  0.00000000

 position of ions in cartesian coordinates  (Angst):
  -0.08025031  2.91690868  1.28273117
   3.98888993  2.82413344 -0.77454799
   3.11686422  0.04638762  0.66569397
   0.14622447  4.74646398 -1.39158519
   3.76241514  0.99457814  1.89976836
   0.79177539  5.69465450 -0.15751079
   5.38159998  1.87594292 -0.77454799
  -1.47296037  3.86509920  1.28273117
  -0.26070400  4.14876409  3.53170721
   4.16934361  1.59227803 -3.02352404
  -1.13096261  2.87052106 -1.61390671
   0.00000000  0.00000000  3.48190500
   2.70085111  4.46279909 -1.35981512
   3.08528241  0.00000000 -1.61390671
   1.20778851  1.27824303  1.86799829
   1.95431981  2.87052106  0.25409159
   0.97715990  1.43526053 -1.61390671
   2.93147971  4.30578159 -4.84172012

 k-point   1 :   0.0000 0.0000 0.0000  plane waves:    8263
 k-point   2 :   0.1667-0.0000 0.0000  plane waves:    8226
 k-point   3 :   0.3333-0.0000 0.0000  plane waves:    8231
 k-point   4 :   0.5000-0.0000 0.0000  plane waves:    8226
 k-point   5 :   0.1667 0.1667 0.0000  plane waves:    8237
 k-point   6 :   0.3333 0.1667 0.0000  plane waves:    8238
 k-point   7 :   0.5000 0.1667 0.0000  plane waves:    8224
 k-point   8 :  -0.3333 0.1667 0.0000  plane waves:    8225
 k-point   9 :  -0.1667 0.1667 0.0000  plane waves:    8215
 k-point  10 :   0.3333 0.3333 0.0000  plane waves:    8247
 k-point  11 :   0.5000 0.3333 0.0000  plane waves:    8226
 k-point  12 :  -0.3333 0.3333 0.0000  plane waves:    8190
 k-point  13 :   0.5000 0.5000 0.0000  plane waves:    8204
 k-point  14 :   0.0000 0.0000 0.1429  plane waves:    8211
 k-point  15 :   0.1667 0.0000 0.1429  plane waves:    8227
 k-point  16 :   0.3333 0.0000 0.1429  plane waves:    8224
 k-point  17 :   0.5000 0.0000 0.1429  plane waves:    8236
 k-point  18 :  -0.3333 0.0000 0.1429  plane waves:    8238
 k-point  19 :  -0.1667 0.0000 0.1429  plane waves:    8227
 k-point  20 :   0.1667 0.1667 0.1429  plane waves:    8234
 k-point  21 :   0.3333 0.1667 0.1429  plane waves:    8219
 k-point  22 :   0.5000 0.1667 0.1429  plane waves:    8226
 k-point  23 :  -0.3333 0.1667 0.1429  plane waves:    8222
 k-point  24 :  -0.1667 0.1667 0.1429  plane waves:    8226
 k-point  25 :   0.3333 0.3333 0.1429  plane waves:    8244
 k-point  26 :   0.5000 0.3333 0.1429  plane waves:    8222
 k-point  27 :  -0.3333 0.3333 0.1429  plane waves:    8228
 k-point  28 :  -0.1667 0.3333 0.1429  plane waves:    8228
 k-point  29 :   0.5000 0.5000 0.1429  plane waves:    8226
 k-point  30 :  -0.3333 0.5000 0.1429  plane waves:    8251
 k-point  31 :  -0.1667 0.5000 0.1429  plane waves:    8237
 k-point  32 :  -0.3333-0.3333 0.1429  plane waves:    8242
 k-point  33 :  -0.1667-0.3333 0.1429  plane waves:    8255
 k-point  34 :  -0.1667-0.1667 0.1429  plane waves:    8226
 k-point  35 :   0.0000 0.0000 0.2857  plane waves:    8200
 k-point  36 :   0.1667 0.0000 0.2857  plane waves:    8236
 k-point  37 :   0.3333-0.0000 0.2857  plane waves:    8239
 k-point  38 :   0.5000-0.0000 0.2857  plane waves:    8241
 k-point  39 :  -0.3333 0.0000 0.2857  plane waves:    8235
 k-point  40 :  -0.1667 0.0000 0.2857  plane waves:    8230
 k-point  41 :   0.1667 0.1667 0.2857  plane waves:    8233
 k-point  42 :   0.3333 0.1667 0.2857  plane waves:    8230
 k-point  43 :   0.5000 0.1667 0.2857  plane waves:    8227
 k-point  44 :  -0.3333 0.1667 0.2857  plane waves:    8224
 k-point  45 :  -0.1667 0.1667 0.2857  plane waves:    8215
 k-point  46 :   0.3333 0.3333 0.2857  plane waves:    8237
 k-point  47 :   0.5000 0.3333 0.2857  plane waves:    8239
 k-point  48 :  -0.3333 0.3333 0.2857  plane waves:    8241
 k-point  49 :  -0.1667 0.3333 0.2857  plane waves:    8241
 k-point  50 :   0.5000 0.5000 0.2857  plane waves:    8238
 k-point  51 :  -0.3333 0.5000 0.2857  plane waves:    8245
 k-point  52 :  -0.1667 0.5000 0.2857  plane waves:    8239
 k-point  53 :  -0.3333-0.3333 0.2857  plane waves:    8255
 k-point  54 :  -0.1667-0.3333 0.2857  plane waves:    8244
 k-point  55 :  -0.1667-0.1667 0.2857  plane waves:    8244
 k-point  56 :   0.0000 0.0000 0.4286  plane waves:    8222
 k-point  57 :   0.1667 0.0000 0.4286  plane waves:    8230
 k-point  58 :   0.3333-0.0000 0.4286  plane waves:    8230
 k-point  59 :   0.5000 0.0000 0.4286  plane waves:    8226
 k-point  60 :  -0.3333 0.0000 0.4286  plane waves:    8226
 k-point  61 :  -0.1667 0.0000 0.4286  plane waves:    8230
 k-point  62 :   0.1667 0.1667 0.4286  plane waves:    8218
 k-point  63 :   0.3333 0.1667 0.4286  plane waves:    8225
 k-point  64 :   0.5000 0.1667 0.4286  plane waves:    8231
 k-point  65 :  -0.3333 0.1667 0.4286  plane waves:    8234
 k-point  66 :  -0.1667 0.1667 0.4286  plane waves:    8248
 k-point  67 :   0.3333 0.3333 0.4286  plane waves:    8240
 k-point  68 :   0.5000 0.3333 0.4286  plane waves:    8249
 k-point  69 :  -0.3333 0.3333 0.4286  plane waves:    8246
 k-point  70 :  -0.1667 0.3333 0.4286  plane waves:    8254
 k-point  71 :   0.5000 0.5000 0.4286  plane waves:    8248
 k-point  72 :  -0.3333 0.5000 0.4286  plane waves:    8250
 k-point  73 :  -0.1667 0.5000 0.4286  plane waves:    8243
 k-point  74 :  -0.3333-0.3333 0.4286  plane waves:    8255
 k-point  75 :  -0.1667-0.3333 0.4286  plane waves:    8253
 k-point  76 :  -0.1667-0.1667 0.4286  plane waves:    8237

 maximum and minimum number of plane-waves per node :      4150     4086

 maximum number of plane-waves:      8263
 maximum index in each direction:
   IXMAX=   14   IYMAX=   14   IZMAX=   13
   IXMIN=  -14   IYMIN=  -14   IZMIN=  -14

 parallel 3D FFT for wavefunctions:
    minimum data exchange during FFTs selected (reduces bandwidth)
 parallel 3D FFT for charge:
    minimum data exchange during FFTs selected (reduces bandwidth)

 Broyden mixing: mesh for mixing (old mesh)
   NGX = 27   NGY = 27   NGZ = 27
  (NGX  =112   NGY  =112   NGZ  =112)
  gives a total of  19683 points

 initial charge density was supplied:
 charge density of overlapping atoms calculated
 number of electron     144.0000000 magnetization
 keeping initial charge density in first step

 Maximum index for augmentation-charges        21614 (set IRDMAX)

 First call to EWALD:  gamma=   0.283
 Maximum number of real-space cells 3x 3x 3
 Maximum number of reciprocal cells 3x 3x 3

--------------------------------------- Iteration      1(   1)  ---------------------------------------

 eigenvalue-minimisations  : 14556
 total energy-change (2. order) : 0.1475563E+04  (-0.9677438E+04)
 number of electron     144.0000000 magnetization
 augmentation part      144.0000000 magnetization

 Free energy of the ion-electron system (eV)
  alpha Z        PSCENC =       731.59821515
  Ewald energy   TEWEN  =    -11785.17215250
  -Hartree energ DENC   =     -3872.31220928
  -exchange      EXHF   =         0.00000000
  -V(xc)+E(xc)   XCENC  =       667.92236299
  PAW double counting   =     12389.78044861   -12344.92887842
  entropy T*S    EENTRO =        -0.00128474
  eigenvalues    EBANDS =        14.92602948
  atomic energy  EATOM  =     15673.75009126
  free energy    TOTEN  =      1475.56262257 eV

  energy without entropy =     1475.56390731  energy(sigma->0) =     1475.56326494

[...]

 eigenvalue-minimisations  : 15048
 total energy-change (2. order) :-0.1728883E+04  (-0.1670318E+04)
 number of electron     144.0000000 magnetization
 augmentation part      144.0000000 magnetization

[...]

 eigenvalue-minimisations  :     0
 total energy-change (2. order) : 0.4045069E-07  (-0.9261998E-07)
 number of electron     144.0000001 magnetization
 augmentation part       19.1128943 magnetization

[...]

--------------------------------------- Iteration      1(  36)  ---------------------------------------

 eigenvalue-minimisations  :     0
 total energy-change (2. order) :-0.1818989E-10  (-0.9341648E-09)
 number of electron     144.0000001 magnetization
 augmentation part       19.1128887 magnetization

 Free energy of the ion-electron system (eV)
  alpha Z        PSCENC =       731.59821515
  Ewald energy   TEWEN  =    -11785.17215250
  -Hartree energ DENC   =     -3724.80114423
  -exchange      EXHF   =         0.00000000
  -V(xc)+E(xc)   XCENC  =       682.15317948
  PAW double counting   =     16916.96838784   -16895.16641059
  entropy T*S    EENTRO =        -0.00171916
  eigenvalues    EBANDS =     -1868.49538971
  atomic energy  EATOM  =     15673.75009126
  free energy    TOTEN  =      -269.16694244 eV

  energy without entropy =     -269.16522328  energy(sigma->0) =     -269.16608286

  average scaling for gradient   0.9342

 average (electrostatic) potential at core
  the test charge radii are     0.7672  1.0818  0.9892
  (the norm of the test charge is              1.0000)
       1 -25.3008       2 -25.3008       3 -25.2994       4 -25.2964       5 -25.2964
       6 -25.2994       7 -25.3008       8 -25.3008       9 -78.3440      10 -78.3440
      11 -78.2705      12 -78.2749      13 -78.3477      14 -78.2715      15 -78.3477
      16 -78.2749      17 -83.9322      18 -83.9322

 E-fermi :   8.5860     XC(G=0): -12.5314     alpha+bet :-15.6758

 Fermi energy:         8.5859501470

 k-point     1 :       0.0000    0.0000    0.0000
  band No.  band energies     occupation
      1     -54.6622      2.00000
      2     -54.6532      2.00000
      3     -54.4453      2.00000
      4     -54.4416      2.00000
      5     -54.3713      2.00000
      6     -54.3675      2.00000
      7     -54.1458      2.00000
      8     -54.1384      2.00000
      9     -29.4321      2.00000
     10     -29.4124      2.00000
     11     -28.1955      2.00000
     12     -28.1911      2.00000
     13     -28.0618      2.00000
     14     -28.0564      2.00000
     15     -27.9919      2.00000
     16     -27.9720      2.00000
     17     -27.9715      2.00000
     18     -27.9119      2.00000
     19     -27.9092      2.00000
     20     -27.8970      2.00000
     21     -27.8130      2.00000
     22     -27.7983      2.00000
     23     -27.7981      2.00000
     24     -27.7339      2.00000
     25     -27.7255      2.00000
     26     -27.7252      2.00000
     27     -27.5918      2.00000
     28     -27.5908      2.00000
     29     -27.5446      2.00000
     30     -27.5443      2.00000
     31     -26.4676      2.00000
     32     -26.4611      2.00000
     33      -4.7778      2.00000
     34      -3.5887      2.00000
     35      -0.6704      2.00000
     36       0.2572      2.00000
     37       0.3914      2.00000
     38       0.3938      2.00000
     39       0.8938      2.00000
     40       2.1501      2.00000
     41       2.1536      2.00000
     42       2.3587      2.00000
     43       2.6388      2.00000
     44       2.8996      2.00000
     45       3.6122      2.00000
     46       3.6130      2.00000
     47       3.6830      2.00000
     48       3.6830      2.00000
     49       3.6976      2.00000
     50       3.9616      2.00000
     51       3.9808      2.00000
     52       4.0276      2.00000
     53       4.4939      2.00000
     54       5.0372      2.00000
     55       5.0396      2.00000
     56       5.5945      2.00000
     57       5.6507      2.00000
     58       5.8397      2.00000
     59       5.8414      2.00000
     60       6.6804      2.00000
[...]
     76       8.9511      0.00000
     77       9.0615      0.00000
     78       9.6846      0.00000
     79       9.6864      0.00000
     80       9.7230      0.00000
     81       9.7878      0.00000
     82       9.7886      0.00000
     83      10.3534      0.00000
     84      10.5877      0.00000
     85      10.6602      0.00000
     86      10.6618      0.00000
     87      10.7546      0.00000
     88      10.7814      0.00000
     89      11.4277      0.00000
     90      12.7895      0.00000

[...]

 k-point    76 :      -0.1667   -0.1667    0.4286
  band No.  band energies     occupation
      1     -54.6288      2.00000
      2     -54.6222      2.00000
      3     -54.5394      2.00000
      4     -54.5357      2.00000
      5     -54.2740      2.00000
      6     -54.2702      2.00000
      7     -54.1804      2.00000
      8     -54.1747      2.00000
      9     -29.2525      2.00000
     10     -29.2391      2.00000
     11     -28.7593      2.00000
     12     -28.7538      2.00000
     13     -28.0589      2.00000
     14     -28.0576      2.00000
     15     -28.0246      2.00000
     16     -27.9587      2.00000
     17     -27.9313      2.00000
     18     -27.9282      2.00000
     19     -27.8931      2.00000
     20     -27.8370      2.00000
     21     -27.7363      2.00000
     22     -27.6914      2.00000
     23     -27.6884      2.00000
     24     -27.6608      2.00000
     25     -27.6584      2.00000
     26     -27.6443      2.00000
     27     -27.5903      2.00000
     28     -27.5875      2.00000
     29     -27.2453      2.00000
     30     -27.2400      2.00000
     31     -26.6849      2.00000
     32     -26.6784      2.00000
     33      -4.4635      2.00000
     34      -3.8999      2.00000
     35      -0.5018      2.00000
     36       0.0010      2.00000
     37       0.2271      2.00000
     38       0.5684      2.00000
     39       0.6532      2.00000
     40       1.0508      2.00000
     41       2.5848      2.00000
     42       2.6481      2.00000
     43       2.9213      2.00000
     44       3.2717      2.00000
     45       3.3993      2.00000
     46       3.8078      2.00000
     47       4.0694      2.00000
     48       4.0970      2.00000
     49       4.2586      2.00000
     50       4.3576      2.00000
     51       4.4585      2.00000
     52       4.5324      2.00000
     53       4.6729      2.00000
     54       4.8148      2.00000
     55       4.9671      2.00000
     56       5.0302      2.00000
     57       5.5937      2.00000
     58       5.6260      2.00000
     59       5.8592      2.00000
     60       6.0080      2.00000
[...]
     76       9.4366      0.00000
     77       9.5085      0.00000
     78       9.5906      0.00000
     79       9.6856      0.00000
     80       9.7277      0.00000
     81       9.8989      0.00000
     82       9.9793      0.00000
     83      10.0406      0.00000
     84      10.3894      0.00000
     85      10.6377      0.00000
     86      10.6400      0.00000
     87      10.9858      0.00000
     88      11.3953      0.00000
     89      11.5853      0.00000
     90      11.7542      0.00000

 soft charge-density along one line, spin component           1
         0         1         2         3         4         5         6         7         8         9
 total charge-density along one line

------------------------ aborting loop because EDIFF is reached ----------------------------------------

  FREE ENERGIE OF THE ION-ELECTRON SYSTEM (eV)
  free  energy   TOTEN  =      -269.16694244 eV

  energy  without entropy=     -269.16522328  energy(sigma->0) =     -269.16608286

 writing wavefunctions