 vasp.6.2.0 18Jan21 (build Jan 05 2022 15:41:44) complex

 executed on             LinuxIFC date 2025.05.07  16:38:35

 INCAR:
   SYSTEM = routine with relax: pwdword
   ICHARG = 2
   NPAR = 6
   KPAR = 2
   NCORE = 2
   ADDGRID = T
   PREC = Acc
   ENCUT = 600
   METAGGA = R2SCAN
   LASPH = .TRUE.
   LMIXTAU = .FALSE.
   ALGO = A
   EDIFF = 1E-9
   NELM = 100
   NELMIN = 6
   IALGO = 38
   LREAL = F
   NSW = 0
   ISIF = -1
   ISMEAR = 0
   SIGMA = 0.02
   SYMPREC = 1E-4

 POTCAR:    PAW_PBE B 06Sep2000
 POTCAR:    PAW_PBE Mo_sv 02Feb2006
 POTCAR:    PAW_PBE Si 05Jan2001
|           W    W    AA    RRRRR   N    N  II  N    N   GGGG   !!!           |
|           W    W   A  A   R    R  NN   N  II  NN   N  G    G  !!!           |
|           W    W  A    A  R    R  N N  N  II  N N  N  G       !!!           |
|           W WW W  AAAAAA  RRRRR   N  N N  II  N  N N  G  GGG   !            |
|           WW  WW  A    A  R   R   N   NN  II  N   NN  G    G                |
|           W    W  A    A  R    R  N    N  II  N    N   GGGG   !!!           |
|     For optimal performance we recommend to set                             |
|       NCORE = 2 up to number-of-cores-per-socket                            |
|     This setting can greatly improve the performance of VASP for DFT.       |
|     The default, NCORE=1 might be grossly inefficient on modern             |
|     multi-core architectures or massively parallel machines. Do your        |
|     Unfortunately you need to use the default for GW and RPA                |
|     calculations (for HF NCORE is supported but not extensively tested      |
|     yet).                                                                   |

 POTCAR:    PAW_PBE B 06Sep2000
   VRHFIN =B: s2p1

   TITEL  = PAW_PBE B 06Sep2000
   POMASS =   10.811; ZVAL   =    3.000    mass and valenz
   ENMAX  =  318.614; ENMIN  =  238.960 eV

 POTCAR:    PAW_PBE Mo_sv 02Feb2006
   VRHFIN =Mo: 4p5s4d

   TITEL  = PAW_PBE Mo_sv 02Feb2006
   POMASS =   95.940; ZVAL   =   14.000    mass and valenz
   ENMAX  =  242.676; ENMIN  =  182.007 eV

 POTCAR:    PAW_PBE Si 05Jan2001
   VRHFIN =Si: s2p2

   TITEL  = PAW_PBE Si 05Jan2001
   POMASS =   28.085; ZVAL   =    4.000    mass and valenz
   ENMAX  =  245.345; ENMIN  =  184.009 eV

  PAW_PBE B 06Sep2000                   :
  PAW_PBE Mo_sv 02Feb2006               :
  PAW_PBE Si 05Jan2001                  :

 POSCAR: EA89
  positions in direct lattice

 METAGGA = R2SCA    LMAXTAU =  6    LMIXTAU =  F

 ion  position               nearest neighbor table
   1  0.827  0.327  0.672-   3 1.46   8 1.46  21 1.96   2 2.05  15 2.50   9 2.50  12 2.55  14 2.55

   2  0.655  0.155  0.328-   3 1.46   8 1.46  19 1.96   1 2.05  17 2.50  11 2.50  18 2.55  13 2.55

[...]

   8  0.845  0.173  0.500-   1 1.46   2 1.46  22 1.96   3 2.05  12 2.50  18 2.50  15 2.55  11 2.55

   9  0.490  0.269  0.759-   5 2.50   1 2.50   3 2.55   7 2.55  10 2.70  16 2.70  20 2.75  22 2.75
                            12 2.75  13 2.75  21 2.88  19 2.88  17 3.09  15 3.33
  10  0.750  0.750  0.000-  12 2.70  18 2.70  17 2.70   9 2.70  13 2.70  14 2.70  11 2.70  15 2.70
                            22 2.98  20 2.98  19 2.98  21 2.98
  11  0.510  0.731  0.241-   2 2.50   6 2.50   4 2.55   8 2.55  16 2.70  10 2.70  20 2.75  22 2.75
                            13 2.75  12 2.75  21 2.88  19 2.88  15 3.09  17 3.33
  12  0.269  0.510  0.779-   8 2.50   4 2.50   1 2.55   5 2.55  10 2.70  16 2.70  19 2.75  21 2.75
                             9 2.75  11 2.75  22 2.88  20 2.88  14 3.09  18 3.33
  13  0.731  0.490  0.221-   7 2.50   3 2.50   6 2.55   2 2.55  16 2.70  10 2.70  19 2.75  21 2.75
                            11 2.75   9 2.75  22 2.88  20 2.88  18 3.09  14 3.33
  14  0.010  0.769  0.779-   3 2.50   7 2.50   1 2.55   5 2.55  16 2.70  10 2.70  19 2.75  21 2.75
                            15 2.75  17 2.75  20 2.88  22 2.88  12 3.09  13 3.33
  15  0.769  0.990  0.759-   5 2.50   1 2.50   8 2.55   4 2.55  16 2.70  10 2.70  22 2.75  20 2.75
                            14 2.75  18 2.75  21 2.88  19 2.88  11 3.09   9 3.33
  16  0.250  0.250  0.000-  13 2.70  14 2.70  11 2.70  15 2.70  12 2.70  18 2.70   9 2.70  17 2.70
                            20 2.98  22 2.98  21 2.98  19 2.98
  17  0.231  0.010  0.241-   2 2.50   6 2.50   7 2.55   3 2.55  10 2.70  16 2.70  22 2.75  20 2.75
                            18 2.75  14 2.75  21 2.88  19 2.88   9 3.09  11 3.33
  18  0.990  0.231  0.221-   4 2.50   8 2.50   6 2.55   2 2.55  10 2.70  16 2.70  19 2.75  21 2.75
                            17 2.75  15 2.75  20 2.88  22 2.88  13 3.09  12 3.33
  19  0.500  0.000  0.000-   2 1.96   5 1.96  14 2.75  18 2.75  12 2.75  13 2.75  17 2.88  15 2.88
                             9 2.88  11 2.88  10 2.98  16 2.98
  20  0.500  0.500  0.500-   3 1.96   4 1.96   9 2.75  11 2.75  15 2.75  17 2.75  14 2.88  18 2.88
                            13 2.88  12 2.88  16 2.98  10 2.98
  21  0.000  0.500  0.000-   1 1.96   6 1.96  12 2.75  13 2.75  14 2.75  18 2.75  11 2.88   9 2.88
                            15 2.88  17 2.88  16 2.98  10 2.98
  22  0.000  0.000  0.500-   7 1.96   8 1.96  15 2.75  17 2.75   9 2.75  11 2.75  12 2.88  13 2.88
                            18 2.88  14 2.88  10 2.98  16 2.98

  LATTYP: Found a body centered tetragonal cell.
 ALAT       =     8.4331540655
 C/A-ratio  =     0.8834784074

  Lattice vectors:

 A1 = (   6.7484124461,   0.0000000000,  -1.9737574658)
 A2 = (  -3.7901449772,   5.5835357610,  -1.9737574658)
 A3 = (   0.0000000000,   0.0000000000,   7.0311300000)

Analysis of symmetry for initial positions (statically):
 Subroutine PRICEL returns:
 Original cell was already a primitive cell.

 Routine SETGRP: Setting up the symmetry group for a
 body centered tetragonal supercell.

 Subroutine GETGRP returns: Found 16 space group operations
 (whereof  8 operations were pure point group operations)
 out of a pool of 16 trial point group operations.

The static configuration has the point symmetry C_4h.
 The point group associated with its full space group is D_4h.

Analysis of symmetry for dynamics (positions and initial velocities):
 Subroutine PRICEL returns:
 Original cell was already a primitive cell.

 Routine SETGRP: Setting up the symmetry group for a
 body centered tetragonal supercell.

 Subroutine GETGRP returns: Found 16 space group operations
 (whereof  8 operations were pure point group operations)
 out of a pool of 16 trial point group operations.

The dynamic configuration has the point symmetry C_4h.
 The point group associated with its full space group is D_4h.

 Subroutine INISYM returns: Found 16 space group operations
 (whereof  8 operations are pure point group operations),
 and found     1 'primitive' translations

                                     Primitive cell

  volume of cell :     264.9330

  direct lattice vectors                    reciprocal lattice vectors
     6.748412446  0.000000000 -1.973757466     0.148183000  0.100587706  0.000000000
    -3.790144977  5.583535761 -1.973757466     0.000000000  0.179097984  0.000000000
     0.000000000  0.000000000  7.031130000     0.041597482  0.078512518  0.142224650

  length of vectors
     7.031130000  7.031130000  7.031130000     0.179097984  0.179097984  0.167697397

  position of ions in fractional coordinates (direct lattice)
     0.826740000  0.326740000  0.672020000
     0.654710000  0.154710000  0.327980000
     0.673260000  0.345290000  0.500000000
     0.326740000  0.654710000  0.500000000
     0.345290000  0.845290000  0.672020000
     0.173260000  0.673260000  0.327980000
     0.154710000  0.826740000  0.500000000
     0.845290000  0.173260000  0.500000000
     0.489770000  0.269230000  0.758990000
     0.750000000  0.750000000  0.000000000
     0.510230000  0.730770000  0.241010000
     0.269230000  0.510230000  0.779460000
     0.730770000  0.489770000  0.220540000
     0.010230000  0.769230000  0.779460000
     0.769230000  0.989770000  0.758990000
     0.250000000  0.250000000  0.000000000
     0.230770000  0.010230000  0.241010000
     0.989770000  0.230770000  0.220540000
     0.500000000  0.000000000  0.000000000
     0.500000000  0.500000000  0.500000000
     0.000000000  0.500000000  0.000000000
     0.000000000  0.000000000  0.500000000

  ion indices of the primitive-cell ions
   primitive index   ion index
                 1           1
                 2           2
                 3           3
                 4           4
                 5           5
                 6           6
                 7           7
                 8           8
                 9           9
                10          10
                11          11
                12          12
                13          13
                14          14
                15          15
                16          16
                17          17
                18          18
                19          19
                20          20
                21          21
                22          22

 KPOINTS: EA

Automatic generation of k-mesh.
 Grid dimensions read from file:
 generate k-points for:    6    6    6

 Generating k-lattice:

  Cartesian coordinates                     Fractional coordinates (reciprocal lattice)
     0.024697167  0.016764618  0.000000000     0.166666667  0.000000000  0.000000000
     0.000000000  0.029849664  0.000000000     0.000000000  0.166666667  0.000000000
     0.006932914  0.013085420  0.023704108    -0.000000000 -0.000000000  0.166666667

  Length of vectors
     0.029849664  0.029849664  0.027949566

  Shift w.r.t. Gamma in fractional coordinates (k-lattice)
     0.000000000  0.000000000  0.000000000

 Subroutine IBZKPT returns following result:

 Found     30 irreducible k-points:

 Following reciprocal coordinates:
            Coordinates               Weight
  0.000000  0.000000  0.000000      1.000000
  0.166667  0.000000  0.000000      8.000000
  0.333333  0.000000  0.000000      8.000000
  0.500000  0.000000  0.000000      4.000000
  0.166667  0.166667  0.000000      8.000000
  0.333333  0.166667  0.000000     16.000000
  0.500000  0.166667  0.000000     16.000000
 -0.333333  0.166667  0.000000     16.000000
 -0.166667  0.166667  0.000000      4.000000
  0.333333  0.333333  0.000000      8.000000
  0.500000  0.333333  0.000000     16.000000
 -0.333333  0.333333  0.000000      4.000000
  0.500000  0.500000  0.000000      2.000000
  0.166667  0.166667  0.166667      8.000000
  0.333333  0.166667  0.166667      8.000000
 -0.166667  0.166667  0.166667      4.000000
  0.333333  0.333333  0.166667      4.000000
 -0.333333  0.333333  0.166667      8.000000
 -0.166667  0.333333  0.166667      8.000000
  0.500000  0.500000  0.166667      4.000000
 -0.333333  0.500000  0.166667     16.000000
 -0.166667  0.500000  0.166667      8.000000
 -0.333333 -0.333333  0.166667      8.000000
 -0.166667 -0.333333  0.166667      8.000000
 -0.166667 -0.166667  0.166667      2.000000
 -0.333333  0.333333  0.333333      4.000000
  0.500000  0.500000  0.333333      4.000000
 -0.333333  0.500000  0.333333      8.000000
 -0.333333 -0.333333  0.333333      2.000000
[...]
     6.748412446  0.000000000 -1.973757466     0.148183000  0.100587706  0.000000000
    -3.790144977  5.583535761 -1.973757466     0.000000000  0.179097984  0.000000000
     0.000000000  0.000000000  7.031130000     0.041597482  0.078512518  0.142224650

  length of vectors
     7.031130000  7.031130000  7.031130000     0.179097984  0.179097984  0.167697397

 k-points in units of 2pi/SCALE and weight: EA
   0.00000000  0.00000000  0.00000000       0.005
   0.02469717  0.01676462  0.00000000       0.037
   0.04939433  0.03352924  0.00000000       0.037
   0.07409150  0.05029385  0.00000000       0.019
   0.02469717  0.04661428  0.00000000       0.037
   0.04939433  0.06337890  0.00000000       0.074
   0.07409150  0.08014352  0.00000000       0.074
  -0.04939433 -0.00367957  0.00000000       0.074
  -0.02469717  0.01308505  0.00000000       0.019
   0.04939433  0.09322856  0.00000000       0.037
   0.07409150  0.10999318  0.00000000       0.074
  -0.04939433  0.02617009  0.00000000       0.019
   0.07409150  0.13984285  0.00000000       0.009
   0.03163008  0.05969970  0.02370411       0.037
   0.05632725  0.07646432  0.02370411       0.037
  -0.01776425  0.02617047  0.02370411       0.019
   0.05632725  0.10631398  0.02370411       0.019
  -0.04246142  0.03925551  0.02370411       0.037
  -0.01776425  0.05602013  0.02370411       0.037
   0.08102441  0.15292826  0.02370411       0.019
  -0.04246142  0.06910518  0.02370411       0.074
  -0.01776425  0.08586979  0.02370411       0.037
  -0.04246142 -0.08014314  0.02370411       0.037
  -0.01776425 -0.06337853  0.02370411       0.037
  -0.01776425 -0.03352886  0.02370411       0.009
  -0.03552851  0.05234093  0.04740822       0.019
   0.08795733  0.16601368  0.04740822       0.019
  -0.03552851  0.08219060  0.04740822       0.037
  -0.03552851 -0.06705772  0.04740822       0.009
   0.09489024  0.17909910  0.07111232       0.005

 k-points in reciprocal lattice and weights: EA
   0.00000000  0.00000000  0.00000000       0.005
   0.16666667  0.00000000  0.00000000       0.037
   0.33333333  0.00000000  0.00000000       0.037
   0.50000000  0.00000000  0.00000000       0.019
   0.16666667  0.16666667  0.00000000       0.037
   0.33333333  0.16666667  0.00000000       0.074
   0.50000000  0.16666667  0.00000000       0.074
  -0.33333333  0.16666667  0.00000000       0.074
  -0.16666667  0.16666667  0.00000000       0.019
   0.33333333  0.33333333  0.00000000       0.037
   0.50000000  0.33333333  0.00000000       0.074
  -0.33333333  0.33333333  0.00000000       0.019
   0.50000000  0.50000000  0.00000000       0.009
   0.16666667  0.16666667  0.16666667       0.037
   0.33333333  0.16666667  0.16666667       0.037
  -0.16666667  0.16666667  0.16666667       0.019
   0.33333333  0.33333333  0.16666667       0.019
  -0.33333333  0.33333333  0.16666667       0.037
  -0.16666667  0.33333333  0.16666667       0.037
   0.50000000  0.50000000  0.16666667       0.019
  -0.33333333  0.50000000  0.16666667       0.074
  -0.16666667  0.50000000  0.16666667       0.037
  -0.33333333 -0.33333333  0.16666667       0.037
  -0.16666667 -0.33333333  0.16666667       0.037
  -0.16666667 -0.16666667  0.16666667       0.009
  -0.33333333  0.33333333  0.33333333       0.019
   0.50000000  0.50000000  0.33333333       0.019
  -0.33333333  0.50000000  0.33333333       0.037
  -0.33333333 -0.33333333  0.33333333       0.009
   0.50000000  0.50000000  0.50000000       0.005

 position of ions in fractional coordinates (direct lattice)
   0.82674000  0.32674000  0.67202000
   0.65471000  0.15471000  0.32798000
   0.67326000  0.34529000  0.50000000
   0.32674000  0.65471000  0.50000000
   0.34529000  0.84529000  0.67202000
   0.17326000  0.67326000  0.32798000
   0.15471000  0.82674000  0.50000000
   0.84529000  0.17326000  0.50000000
   0.48977000  0.26923000  0.75899000
   0.75000000  0.75000000  0.00000000
   0.51023000  0.73077000  0.24101000
   0.26923000  0.51023000  0.77946000
   0.73077000  0.48977000  0.22054000
   0.01023000  0.76923000  0.77946000
   0.76923000  0.98977000  0.75899000
   0.25000000  0.25000000  0.00000000
   0.23077000  0.01023000  0.24101000
   0.98977000  0.23077000  0.22054000
   0.50000000  0.00000000  0.00000000
   0.50000000  0.50000000  0.50000000
   0.00000000  0.50000000  0.00000000
   0.00000000  0.00000000  0.50000000

 position of ions in cartesian coordinates  (Angst):
   4.34079054  1.82436447  2.44837022
   3.83187978  0.86382882  0.70847125
   3.23473700  1.92793906  1.50519433
  -0.27646954  3.65559670  1.57842074
  -0.87361231  4.71970694  2.37514382
  -1.38252307  3.75917129  0.63524485
  -2.08941757  4.61613236  1.57842074
   5.04768504  0.96740341  1.50519433
   2.28474923  1.50325533  3.83847544
   2.21870060  4.18765182 -2.96063620
   0.67351824  4.08028043 -0.75486037
  -0.11697059  2.84888745  3.94201960
   3.07523806  2.73464831 -0.85840453
  -2.84645696  4.29502321  3.94201960
   1.43970951  5.52641619  1.86471798
   0.73956687  1.39588394 -0.98687873
   1.51855796  0.05711957  1.21889709
   5.80472443  1.28851255 -0.85840453
   3.37420622  0.00000000 -0.98687873
   1.47913373  2.79176788  1.54180753
  -1.89507249  2.79176788 -0.98687873
   0.00000000  0.00000000  3.51556500

 k-point   1 :   0.0000 0.0000 0.0000  plane waves:    8811
 k-point   2 :   0.1667 0.0000 0.0000  plane waves:    8822
 k-point   3 :   0.3333 0.0000 0.0000  plane waves:    8820
 k-point   4 :   0.5000 0.0000 0.0000  plane waves:    8842
 k-point   5 :   0.1667 0.1667 0.0000  plane waves:    8826
 k-point   6 :   0.3333 0.1667 0.0000  plane waves:    8830
 k-point   7 :   0.5000 0.1667 0.0000  plane waves:    8841
 k-point   8 :  -0.3333 0.1667 0.0000  plane waves:    8829
 k-point   9 :  -0.1667 0.1667 0.0000  plane waves:    8806
 k-point  10 :   0.3333 0.3333 0.0000  plane waves:    8851
 k-point  11 :   0.5000 0.3333 0.0000  plane waves:    8834
 k-point  12 :  -0.3333 0.3333 0.0000  plane waves:    8838
 k-point  13 :   0.5000 0.5000 0.0000  plane waves:    8796
 k-point  14 :   0.1667 0.1667 0.1667  plane waves:    8849
 k-point  15 :   0.3333 0.1667 0.1667  plane waves:    8862
 k-point  16 :  -0.1667 0.1667 0.1667  plane waves:    8831
 k-point  17 :   0.3333 0.3333 0.1667  plane waves:    8860
 k-point  18 :  -0.3333 0.3333 0.1667  plane waves:    8846
 k-point  19 :  -0.1667 0.3333 0.1667  plane waves:    8850
 k-point  20 :   0.5000 0.5000 0.1667  plane waves:    8842
 k-point  21 :  -0.3333 0.5000 0.1667  plane waves:    8847
 k-point  22 :  -0.1667 0.5000 0.1667  plane waves:    8855
 k-point  23 :  -0.3333-0.3333 0.1667  plane waves:    8849
 k-point  24 :  -0.1667-0.3333 0.1667  plane waves:    8836
 k-point  25 :  -0.1667-0.1667 0.1667  plane waves:    8847
 k-point  26 :  -0.3333 0.3333 0.3333  plane waves:    8855
 k-point  27 :   0.5000 0.5000 0.3333  plane waves:    8876
 k-point  28 :  -0.3333 0.5000 0.3333  plane waves:    8855
 k-point  29 :  -0.3333-0.3333 0.3333  plane waves:    8851
 k-point  30 :   0.5000 0.5000 0.5000  plane waves:    8838

 maximum and minimum number of plane-waves per node :      4461     4374

 maximum number of plane-waves:      8876
 maximum index in each direction:
   IXMAX=   14   IYMAX=   14   IZMAX=   14
   IXMIN=  -14   IYMIN=  -14   IZMIN=  -14

 parallel 3D FFT for wavefunctions:
    minimum data exchange during FFTs selected (reduces bandwidth)
 parallel 3D FFT for charge:
    minimum data exchange during FFTs selected (reduces bandwidth)

 Broyden mixing: mesh for mixing (old mesh)
   NGX = 29   NGY = 29   NGZ = 29
  (NGX  =112   NGY  =112   NGZ  =112)
  gives a total of  24389 points

 initial charge density was supplied:
 charge density of overlapping atoms calculated
 number of electron     180.0000000 magnetization
 keeping initial charge density in first step

 Maximum index for augmentation-charges        20106 (set IRDMAX)

 First call to EWALD:  gamma=   0.276
 Maximum number of real-space cells 3x 3x 3
 Maximum number of reciprocal cells 3x 3x 3

--------------------------------------- Iteration      1(   1)  ---------------------------------------

 eigenvalue-minimisations  :  6540
 total energy-change (2. order) : 0.1929715E+04  (-0.1210533E+05)
 number of electron     180.0000000 magnetization
 augmentation part      180.0000000 magnetization

 Free energy of the ion-electron system (eV)
  alpha Z        PSCENC =      1041.85145045
  Ewald energy   TEWEN  =    -16005.82145010
  -Hartree energ DENC   =     -4196.53911964
  -exchange      EXHF   =         0.00000000
  -V(xc)+E(xc)   XCENC  =       819.73275636
  PAW double counting   =     15528.62341873   -15455.31298966
  entropy T*S    EENTRO =        -0.00065557
  eigenvalues    EBANDS =       592.73306150
  atomic energy  EATOM  =     19604.44825190
  free energy    TOTEN  =      1929.71472398 eV

  energy without entropy =     1929.71537955  energy(sigma->0) =     1929.71505177

[...]

 eigenvalue-minimisations  :  6924
 total energy-change (2. order) :-0.2242183E+04  (-0.2191202E+04)
 number of electron     180.0000000 magnetization
 augmentation part      180.0000000 magnetization

[...]

 eigenvalue-minimisations  :     0
 total energy-change (2. order) :-0.6315531E-08  (-0.6449172E-09)
 number of electron     180.0000008 magnetization
 augmentation part       23.6369577 magnetization

[...]

--------------------------------------- Iteration      1(  39)  ---------------------------------------

 eigenvalue-minimisations  :     0
 total energy-change (2. order) : 0.9349606E-09  (-0.4535994E-09)
 number of electron     180.0000008 magnetization
 augmentation part       23.6369575 magnetization

 Free energy of the ion-electron system (eV)
  alpha Z        PSCENC =      1041.85145045
  Ewald energy   TEWEN  =    -16005.82145010
  -Hartree energ DENC   =     -3940.64151411
  -exchange      EXHF   =         0.00000000
  -V(xc)+E(xc)   XCENC  =       835.91162596
  PAW double counting   =     23127.66346901   -23088.35818974
  entropy T*S    EENTRO =        -0.00315023
  eigenvalues    EBANDS =     -1917.06413979
  atomic energy  EATOM  =     19604.44825190
  free energy    TOTEN  =      -342.01364668 eV

  energy without entropy =     -342.01049645  energy(sigma->0) =     -342.01207156

  average scaling for gradient   1.1264

 average (electrostatic) potential at core
  the test charge radii are     0.7672  1.0818  0.9892
  (the norm of the test charge is              1.0000)
       1 -22.4591       2 -22.4572       3 -22.4601       4 -22.4601       5 -22.4572
       6 -22.4591       7 -22.4601       8 -22.4601       9 -75.9812      10 -75.6280
      11 -75.9812      12 -75.9797      13 -75.9797      14 -75.9797      15 -75.9812
      16 -75.6280      17 -75.9812      18 -75.9797      19 -81.5972      20 -81.6035
      21 -81.5997      22 -81.6035

 E-fermi :  11.0649     XC(G=0): -13.6478     alpha+bet :-18.7660

 Fermi energy:        11.0649089483

 k-point     1 :       0.0000    0.0000    0.0000
  band No.  band energies     occupation
      1     -52.1152      2.00000
      2     -52.0438      2.00000
      3     -52.0024      2.00000
      4     -52.0010      2.00000
      5     -51.9931      2.00000
      6     -51.9917      2.00000
      7     -51.9491      2.00000
      8     -51.9320      2.00000
      9     -51.6994      2.00000
     10     -51.6504      2.00000
     11     -26.0290      2.00000
     12     -25.8280      2.00000
     13     -25.8010      2.00000
     14     -25.8010      2.00000
     15     -25.7975      2.00000
     16     -25.7972      2.00000
     17     -25.7153      2.00000
     18     -25.6928      2.00000
     19     -25.5440      2.00000
     20     -25.5372      2.00000
     21     -25.5213      2.00000
     22     -25.5211      2.00000
     23     -25.4593      2.00000
     24     -25.4463      2.00000
     25     -25.4461      2.00000
     26     -25.3731      2.00000
     27     -25.2144      2.00000
     28     -25.2138      2.00000
     29     -25.1974      2.00000
     30     -25.1967      2.00000
     31     -25.1850      2.00000
     32     -25.1467      2.00000
     33     -25.0467      2.00000
     34     -25.0247      2.00000
     35     -24.8421      2.00000
     36     -24.8418      2.00000
     37     -24.8310      2.00000
     38     -24.8308      2.00000
     39     -24.8131      2.00000
     40     -24.6989      2.00000
     41      -3.6745      2.00000
     42      -3.0410      2.00000
     43       0.0717      2.00000
     44       0.0895      2.00000
     45       0.0932      2.00000
     46       0.9688      2.00000
     47       1.3695      2.00000
     48       1.3714      2.00000
     49       4.3198      2.00000
     50       4.3485      2.00000
     51       4.6670      2.00000
     52       4.7300      2.00000
     53       5.0643      2.00000
     54       5.2268      2.00000
     55       5.2284      2.00000
     56       5.4023      2.00000
     57       5.4364      2.00000
     58       5.4408      2.00000
     59       5.6162      2.00000
     60       5.6802      2.00000
[...]
     94      11.4961      0.00000
     95      11.5049      0.00000
     96      11.6015      0.00000
     97      11.7072      0.00000
     98      11.7099      0.00000
     99      11.7101      0.00000
    100      12.0179      0.00000
    101      12.1681      0.00000
    102      12.2098      0.00000
    103      12.2526      0.00000
    104      12.2533      0.00000
    105      12.8062      0.00000
    106      12.8239      0.00000
    107      12.9433      0.00000
    108      13.7781      0.00000

[...]

 k-point    30 :       0.5000    0.5000    0.5000
  band No.  band energies     occupation
      1     -52.0978      2.00000
      2     -52.0636      2.00000
      3     -52.0027      2.00000
      4     -52.0013      2.00000
      5     -51.9929      2.00000
      6     -51.9915      2.00000
      7     -51.9515      2.00000
      8     -51.9296      2.00000
      9     -51.6994      2.00000
     10     -51.6481      2.00000
     11     -26.1145      2.00000
     12     -25.8078      2.00000
     13     -25.7944      2.00000
     14     -25.7942      2.00000
     15     -25.7348      2.00000
     16     -25.7345      2.00000
     17     -25.6819      2.00000
     18     -25.6189      2.00000
     19     -25.6188      2.00000
     20     -25.5821      2.00000
     21     -25.5743      2.00000
     22     -25.5507      2.00000
     23     -25.4483      2.00000
     24     -25.4482      2.00000
     25     -25.4259      2.00000
     26     -25.4031      2.00000
     27     -25.2745      2.00000
     28     -25.2743      2.00000
     29     -25.1918      2.00000
     30     -25.1520      2.00000
     31     -25.0891      2.00000
     32     -25.0889      2.00000
     33     -25.0412      2.00000
     34     -25.0193      2.00000
     35     -24.8601      2.00000
     36     -24.8599      2.00000
     37     -24.8307      2.00000
     38     -24.8304      2.00000
     39     -24.8020      2.00000
     40     -24.7480      2.00000
     41      -3.3444      2.00000
     42      -3.1952      2.00000
     43      -0.5446      2.00000
     44      -0.5409      2.00000
     45       0.4990      2.00000
     46       1.3190      2.00000
     47       1.9621      2.00000
     48       1.9644      2.00000
     49       3.2094      2.00000
     50       3.2280      2.00000
     51       3.5054      2.00000
     52       4.9174      2.00000
     53       5.2164      2.00000
     54       5.2183      2.00000
     55       5.6602      2.00000
     56       5.7707      2.00000
     57       5.8735      2.00000
     58       6.0394      2.00000
     59       6.4767      2.00000
     60       6.4772      2.00000
[...]
     94      11.2101      0.00000
     95      11.2108      0.00000
     96      11.3132      0.00000
     97      11.3147      0.00000
     98      11.5001      0.00000
     99      12.2619      0.00000
    100      12.5135      0.00000
    101      12.6938      0.00000
    102      12.6939      0.00000
    103      12.7293      0.00000
    104      13.0809      0.00000
    105      13.0820      0.00000
    106      13.3461      0.00000
    107      14.0046      0.00000
    108      14.1298      0.00000

 soft charge-density along one line, spin component           1
         0         1         2         3         4         5         6         7         8         9
 total charge-density along one line

------------------------ aborting loop because EDIFF is reached ----------------------------------------

  FREE ENERGIE OF THE ION-ELECTRON SYSTEM (eV)
  free  energy   TOTEN  =      -342.01364668 eV

  energy  without entropy=     -342.01049645  energy(sigma->0) =     -342.01207156

 writing wavefunctions