 vasp.6.2.0 18Jan21 (build Jan 05 2022 15:41:44) complex

 executed on             LinuxIFC date 2025.05.07  17:49:30

 INCAR:
   SYSTEM = routine with relax: pwdword
   ICHARG = 2
   NPAR = 6
   KPAR = 2
   NCORE = 2
   ADDGRID = T
   PREC = Acc
   ENCUT = 600
   METAGGA = R2SCAN
   LASPH = .TRUE.
   LMIXTAU = .FALSE.
   ALGO = A
   EDIFF = 1E-9
   NELM = 100
   NELMIN = 6
   IALGO = 38
   LREAL = F
   NSW = 0
   ISIF = -1
   ISMEAR = 0
   SIGMA = 0.02
   SYMPREC = 1E-4

 POTCAR:    PAW_PBE B 06Sep2000
 POTCAR:    PAW_PBE Mo_sv 02Feb2006
 POTCAR:    PAW_PBE Si 05Jan2001
|           W    W    AA    RRRRR   N    N  II  N    N   GGGG   !!!           |
|           W    W   A  A   R    R  NN   N  II  NN   N  G    G  !!!           |
|           W    W  A    A  R    R  N N  N  II  N N  N  G       !!!           |
|           W WW W  AAAAAA  RRRRR   N  N N  II  N  N N  G  GGG   !            |
|           WW  WW  A    A  R   R   N   NN  II  N   NN  G    G                |
|           W    W  A    A  R    R  N    N  II  N    N   GGGG   !!!           |
|     For optimal performance we recommend to set                             |
|       NCORE = 2 up to number-of-cores-per-socket                            |
|     This setting can greatly improve the performance of VASP for DFT.       |
|     The default, NCORE=1 might be grossly inefficient on modern             |
|     multi-core architectures or massively parallel machines. Do your        |
|     Unfortunately you need to use the default for GW and RPA                |
|     calculations (for HF NCORE is supported but not extensively tested      |
|     yet).                                                                   |

 POTCAR:    PAW_PBE B 06Sep2000
   VRHFIN =B: s2p1

   TITEL  = PAW_PBE B 06Sep2000
   POMASS =   10.811; ZVAL   =    3.000    mass and valenz
   ENMAX  =  318.614; ENMIN  =  238.960 eV

 POTCAR:    PAW_PBE Mo_sv 02Feb2006
   VRHFIN =Mo: 4p5s4d

   TITEL  = PAW_PBE Mo_sv 02Feb2006
   POMASS =   95.940; ZVAL   =   14.000    mass and valenz
   ENMAX  =  242.676; ENMIN  =  182.007 eV

 POTCAR:    PAW_PBE Si 05Jan2001
   VRHFIN =Si: s2p2

   TITEL  = PAW_PBE Si 05Jan2001
   POMASS =   28.085; ZVAL   =    4.000    mass and valenz
   ENMAX  =  245.345; ENMIN  =  184.009 eV

  PAW_PBE B 06Sep2000                   :
  PAW_PBE Mo_sv 02Feb2006               :
  PAW_PBE Si 05Jan2001                  :

 POSCAR: EA109
  positions in direct lattice

 METAGGA = R2SCA    LMAXTAU =  6    LMIXTAU =  F

 ion  position               nearest neighbor table
   1  0.173  0.673  0.846-   8 2.09  15 2.09  14 2.60   7 2.60  11 2.60  13 2.60  19 2.63  20 2.63

   2  0.327  0.173  0.500-  10 2.09  16 2.09  12 2.60   7 2.60  13 2.60   9 2.60  17 2.63  18 2.63

[...]

  16  0.500  0.500  0.500-   2 2.09   3 2.09   5 2.27  12 2.27  13 2.27  14 2.27  19 2.56  20 2.56

  17  0.389  0.889  0.278-  15 2.56   8 2.56  12 2.59   6 2.59   5 2.59   9 2.59   2 2.63   3 2.63
                            18 2.84
  18  0.611  0.111  0.722-  15 2.56   8 2.56  14 2.59   7 2.59  11 2.59  13 2.59   2 2.63   3 2.63
                            17 2.84
  19  0.111  0.389  0.500-  10 2.56  16 2.56  11 2.59   5 2.59  14 2.59   6 2.59   1 2.63   4 2.63
                            20 2.84
  20  0.889  0.611  0.500-  10 2.56  16 2.56  13 2.59   9 2.59   7 2.59  12 2.59   1 2.63   4 2.63
                            19 2.84

  LATTYP: Found a body centered tetragonal cell.
 ALAT       =     9.0262273053
 C/A-ratio  =     0.8188465679

  Lattice vectors:

 A1 = (   7.1389205295,   0.0000000000,  -1.8517015688)
 A2 = (  -4.2734246865,   5.7185686824,  -1.8517015688)
 A3 = (   0.0000000000,   0.0000000000,   7.3751600000)

Analysis of symmetry for initial positions (statically):
 Subroutine PRICEL returns:
 Original cell was already a primitive cell.

 Routine SETGRP: Setting up the symmetry group for a
 body centered tetragonal supercell.

 Subroutine GETGRP returns: Found 16 space group operations
 (whereof  8 operations were pure point group operations)
 out of a pool of 16 trial point group operations.

The static configuration has the point symmetry C_4h.
 The point group associated with its full space group is D_4h.

Analysis of symmetry for dynamics (positions and initial velocities):
 Subroutine PRICEL returns:
 Original cell was already a primitive cell.

 Routine SETGRP: Setting up the symmetry group for a
 body centered tetragonal supercell.

 Subroutine GETGRP returns: Found 16 space group operations
 (whereof  8 operations were pure point group operations)
 out of a pool of 16 trial point group operations.

The dynamic configuration has the point symmetry C_4h.
 The point group associated with its full space group is D_4h.

 Subroutine INISYM returns: Found 16 space group operations
 (whereof  8 operations are pure point group operations),
 and found     1 'primitive' translations

                                     Primitive cell

  volume of cell :     301.0865

  direct lattice vectors                    reciprocal lattice vectors
     7.138920529  0.000000000 -1.851701569     0.140077200  0.104678181  0.000000000
    -4.273424686  5.718568682 -1.851701569     0.000000000  0.174868932  0.000000000
     0.000000000  0.000000000  7.375160000     0.035169565  0.070186657  0.135590279

  length of vectors
     7.375160000  7.375160000  7.375160000     0.174868932  0.174868932  0.156677340

  position of ions in fractional coordinates (direct lattice)
     0.173110000  0.673110000  0.846220000
     0.326890000  0.173110000  0.500000000
     0.673110000  0.826890000  0.500000000
     0.826890000  0.326890000  0.153780000
     0.250000000  0.470840000  0.220840000
     0.750000000  0.970840000  0.220840000
     0.250000000  0.029160000  0.779160000
     0.000000000  0.500000000  0.000000000
     0.970840000  0.750000000  0.220840000
     0.000000000  0.000000000  0.500000000
     0.029160000  0.250000000  0.779160000
     0.470840000  0.250000000  0.220840000
     0.750000000  0.529160000  0.779160000
     0.529160000  0.750000000  0.779160000
     0.500000000  0.000000000  1.000000000
     0.500000000  0.500000000  0.500000000
     0.388770000  0.888770000  0.277530000
     0.611230000  0.111230000  0.722470000
     0.111230000  0.388770000  0.500000000
     0.888770000  0.611230000  0.500000000

  ion indices of the primitive-cell ions
   primitive index   ion index
                 1           1
                 2           2
                 3           3
                 4           4
                 5           5
                 6           6
                 7           7
                 8           8
                 9           9
                10          10
                11          11
                12          12
                13          13
                14          14
                15          15
                16          16
                17          17
                18          18
                19          19
                20          20

 KPOINTS: EA

Automatic generation of k-mesh.
 Grid dimensions read from file:
 generate k-points for:    6    6    6

 Generating k-lattice:

  Cartesian coordinates                     Fractional coordinates (reciprocal lattice)
     0.023346200  0.017446363  0.000000000     0.166666667  0.000000000  0.000000000
     0.000000000  0.029144822  0.000000000     0.000000000  0.166666667  0.000000000
     0.005861594  0.011697776  0.022598380     0.000000000  0.000000000  0.166666667

  Length of vectors
     0.029144822  0.029144822  0.026112890

  Shift w.r.t. Gamma in fractional coordinates (k-lattice)
     0.000000000  0.000000000  0.000000000

 Subroutine IBZKPT returns following result:

 Found     30 irreducible k-points:

 Following reciprocal coordinates:
            Coordinates               Weight
  0.000000  0.000000  0.000000      1.000000
  0.166667 -0.000000  0.000000      8.000000
  0.333333 -0.000000  0.000000      8.000000
  0.500000  0.000000  0.000000      4.000000
  0.166667  0.166667  0.000000      8.000000
  0.333333  0.166667  0.000000     16.000000
  0.500000  0.166667  0.000000     16.000000
 -0.333333  0.166667  0.000000     16.000000
 -0.166667  0.166667  0.000000      4.000000
  0.333333  0.333333  0.000000      8.000000
  0.500000  0.333333  0.000000     16.000000
 -0.333333  0.333333  0.000000      4.000000
  0.500000  0.500000  0.000000      2.000000
  0.166667  0.166667  0.166667      8.000000
  0.333333  0.166667  0.166667      8.000000
 -0.166667  0.166667  0.166667      4.000000
  0.333333  0.333333  0.166667      4.000000
 -0.333333  0.333333  0.166667      8.000000
 -0.166667  0.333333  0.166667      8.000000
  0.500000  0.500000  0.166667      4.000000
 -0.333333  0.500000  0.166667     16.000000
 -0.166667  0.500000  0.166667      8.000000
 -0.333333 -0.333333  0.166667      8.000000
 -0.166667 -0.333333  0.166667      8.000000
 -0.166667 -0.166667  0.166667      2.000000
 -0.333333  0.333333  0.333333      4.000000
  0.500000  0.500000  0.333333      4.000000
 -0.333333  0.500000  0.333333      8.000000
 -0.333333 -0.333333  0.333333      2.000000
  0.500000  0.500000  0.500000      1.000000

 Following cartesian coordinates:
            Coordinates               Weight
  0.000000  0.000000  0.000000      1.000000
  0.023346  0.017446  0.000000      8.000000
  0.046692  0.034893  0.000000      8.000000
  0.070039  0.052339  0.000000      4.000000
  0.023346  0.046591  0.000000      8.000000
  0.046692  0.064038  0.000000     16.000000
  0.070039  0.081484  0.000000     16.000000
 -0.046692 -0.005748  0.000000     16.000000
 -0.023346  0.011698  0.000000      4.000000
  0.046692  0.093182  0.000000      8.000000
  0.070039  0.110629  0.000000     16.000000
 -0.046692  0.023397  0.000000      4.000000
  0.070039  0.139774  0.000000      2.000000
  0.029208  0.058289  0.022598      8.000000
  0.052554  0.075735  0.022598      8.000000
 -0.017485  0.023396  0.022598      4.000000
  0.052554  0.104880  0.022598      4.000000
 -0.040831  0.035095  0.022598      8.000000
 -0.017485  0.052541  0.022598      8.000000
  0.075900  0.151471  0.022598      4.000000
 -0.040831  0.064240  0.022598     16.000000
 -0.017485  0.081686  0.022598      8.000000
 -0.040831 -0.081485  0.022598      8.000000
 -0.017485 -0.064038  0.022598      8.000000
 -0.017485 -0.034893  0.022598      2.000000
 -0.034969  0.046792  0.045197      4.000000
  0.081762  0.163169  0.045197      4.000000
 -0.034969  0.075937  0.045197      8.000000
 -0.034969 -0.069787  0.045197      2.000000
  0.087623  0.174867  0.067795      1.000000

 SYSTEM =  routine with relax: pwdword
 POSCAR =  EA109

 Startparameter for this run:
   NWRITE =      2    write-flag & timer
   PREC   = acc       normal or accurate (medium, high low for compatibility)
   ISTART =      0    job   : 0-new  1-cont  2-samecut
   ICHARG =      2    charge: 1-file 2-atom 10-const
   ISPIN  =      1    spin polarized calculation?
   LNONCOLLINEAR =      F non collinear calculations
   LSORBIT =      F    spin-orbit coupling
   INIWAV =      1    electr: 0-lowe 1-rand  2-diag
   LASPH  =      T    aspherical Exc in radial PAW
[...]
     7.138920529  0.000000000 -1.851701569     0.140077200  0.104678181  0.000000000
    -4.273424686  5.718568682 -1.851701569     0.000000000  0.174868932  0.000000000
     0.000000000  0.000000000  7.375160000     0.035169565  0.070186657  0.135590279

  length of vectors
     7.375160000  7.375160000  7.375160000     0.174868932  0.174868932  0.156677340

 k-points in units of 2pi/SCALE and weight: EA
   0.00000000  0.00000000  0.00000000       0.005
   0.02334620  0.01744636  0.00000000       0.037
   0.04669240  0.03489273  0.00000000       0.037
   0.07003860  0.05233909  0.00000000       0.019
   0.02334620  0.04659119  0.00000000       0.037
   0.04669240  0.06403755  0.00000000       0.074
   0.07003860  0.08148391  0.00000000       0.074
  -0.04669240 -0.00574790  0.00000000       0.074
  -0.02334620  0.01169846  0.00000000       0.019
   0.04669240  0.09318237  0.00000000       0.037
   0.07003860  0.11062873  0.00000000       0.074
  -0.04669240  0.02339692  0.00000000       0.019
   0.07003860  0.13977356  0.00000000       0.009
   0.02920779  0.05828896  0.02259838       0.037
   0.05255399  0.07573533  0.02259838       0.037
  -0.01748461  0.02339623  0.02259838       0.019
   0.05255399  0.10488015  0.02259838       0.019
  -0.04083081  0.03509469  0.02259838       0.037
  -0.01748461  0.05254106  0.02259838       0.037
   0.07590019  0.15147133  0.02259838       0.019
  -0.04083081  0.06423952  0.02259838       0.074
  -0.01748461  0.08168588  0.02259838       0.037
  -0.04083081 -0.08148459  0.02259838       0.037
  -0.01748461 -0.06403823  0.02259838       0.037
  -0.01748461 -0.03489341  0.02259838       0.009
  -0.03496921  0.04679247  0.04519676       0.019
   0.08176179  0.16316911  0.04519676       0.019
  -0.03496921  0.07593729  0.04519676       0.037
  -0.03496921 -0.06978682  0.04519676       0.009
   0.08762338  0.17486689  0.06779514       0.005

 k-points in reciprocal lattice and weights: EA
   0.00000000  0.00000000  0.00000000       0.005
   0.16666667 -0.00000000  0.00000000       0.037
   0.33333333 -0.00000000  0.00000000       0.037
   0.50000000  0.00000000  0.00000000       0.019
   0.16666667  0.16666667  0.00000000       0.037
   0.33333333  0.16666667  0.00000000       0.074
   0.50000000  0.16666667  0.00000000       0.074
  -0.33333333  0.16666667  0.00000000       0.074
  -0.16666667  0.16666667  0.00000000       0.019
   0.33333333  0.33333333  0.00000000       0.037
   0.50000000  0.33333333  0.00000000       0.074
  -0.33333333  0.33333333  0.00000000       0.019
   0.50000000  0.50000000  0.00000000       0.009
   0.16666667  0.16666667  0.16666667       0.037
   0.33333333  0.16666667  0.16666667       0.037
  -0.16666667  0.16666667  0.16666667       0.019
   0.33333333  0.33333333  0.16666667       0.019
  -0.33333333  0.33333333  0.16666667       0.037
  -0.16666667  0.33333333  0.16666667       0.037
   0.50000000  0.50000000  0.16666667       0.019
  -0.33333333  0.50000000  0.16666667       0.074
  -0.16666667  0.50000000  0.16666667       0.037
  -0.33333333 -0.33333333  0.16666667       0.037
  -0.16666667 -0.33333333  0.16666667       0.037
  -0.16666667 -0.16666667  0.16666667       0.009
  -0.33333333  0.33333333  0.33333333       0.019
   0.50000000  0.50000000  0.33333333       0.019
  -0.33333333  0.50000000  0.33333333       0.037
  -0.33333333 -0.33333333  0.33333333       0.009
   0.50000000  0.50000000  0.50000000       0.005

 position of ions in fractional coordinates (direct lattice)
   0.17311000  0.67311000  0.84622000
   0.32689000  0.17311000  0.50000000
   0.67311000  0.82689000  0.50000000
   0.82689000  0.32689000  0.15378000
   0.25000000  0.47084000  0.22084000
   0.75000000  0.97084000  0.22084000
   0.25000000  0.02916000  0.77916000
   0.00000000  0.50000000  0.00000000
   0.97084000  0.75000000  0.22084000
   0.00000000  0.00000000  0.50000000
   0.02916000  0.25000000  0.77916000
   0.47084000  0.25000000  0.22084000
   0.75000000  0.52916000  0.77916000
   0.52916000  0.75000000  0.77916000
   0.50000000  0.00000000  0.00000000
   0.50000000  0.50000000  0.50000000
   0.38877000  0.88877000  0.27753000
   0.61123000  0.11123000  0.72247000
   0.11123000  0.38877000  0.50000000
   0.88877000  0.61123000  0.50000000

 position of ions in cartesian coordinates  (Angst):
  -1.64066636  3.84922577  4.67406099
   1.59386918  0.98994142  2.76172922
   1.27162666  4.72862726  0.91002765
   4.50616220  1.86934292 -1.00230413
  -0.22736915  2.69253088  0.29394978
   1.20537877  5.55181522 -1.55775179
   1.66011707  0.16675346  5.22950866
  -2.13671234  2.85928434 -0.92585078
   3.72568109  4.28892651 -1.55775179
   0.00000000  0.00000000  3.68758000
  -0.86018525  1.42964217  5.22950866
   2.29293317  1.42964217  0.29394978
   3.09286499  3.02603780  3.37780709
   0.57256267  4.28892651  3.37780709
   3.56946026  0.00000000 -0.92585078
   1.43274792  2.85928434  1.83587843
  -1.02269352  5.08249229 -0.31879467
   3.88818937  0.63607639  3.99055153
  -0.86731718  2.22320795  2.76172922
   3.73281303  3.49536074  0.91002765

 k-point   1 :   0.0000 0.0000 0.0000  plane waves:    9963
 k-point   2 :   0.1667-0.0000 0.0000  plane waves:   10052
 k-point   3 :   0.3333-0.0000 0.0000  plane waves:   10030
 k-point   4 :   0.5000 0.0000 0.0000  plane waves:   10058
 k-point   5 :   0.1667 0.1667 0.0000  plane waves:   10035
 k-point   6 :   0.3333 0.1667 0.0000  plane waves:   10051
 k-point   7 :   0.5000 0.1667 0.0000  plane waves:   10063
 k-point   8 :  -0.3333 0.1667 0.0000  plane waves:   10049
 k-point   9 :  -0.1667 0.1667 0.0000  plane waves:   10057
 k-point  10 :   0.3333 0.3333 0.0000  plane waves:   10066
 k-point  11 :   0.5000 0.3333 0.0000  plane waves:   10060
 k-point  12 :  -0.3333 0.3333 0.0000  plane waves:   10042
 k-point  13 :   0.5000 0.5000 0.0000  plane waves:   10042
 k-point  14 :   0.1667 0.1667 0.1667  plane waves:   10044
 k-point  15 :   0.3333 0.1667 0.1667  plane waves:   10050
 k-point  16 :  -0.1667 0.1667 0.1667  plane waves:   10064
 k-point  17 :   0.3333 0.3333 0.1667  plane waves:   10064
 k-point  18 :  -0.3333 0.3333 0.1667  plane waves:   10041
 k-point  19 :  -0.1667 0.3333 0.1667  plane waves:   10030
 k-point  20 :   0.5000 0.5000 0.1667  plane waves:   10054
 k-point  21 :  -0.3333 0.5000 0.1667  plane waves:   10040
 k-point  22 :  -0.1667 0.5000 0.1667  plane waves:   10035
 k-point  23 :  -0.3333-0.3333 0.1667  plane waves:   10055
 k-point  24 :  -0.1667-0.3333 0.1667  plane waves:   10047
 k-point  25 :  -0.1667-0.1667 0.1667  plane waves:   10031
 k-point  26 :  -0.3333 0.3333 0.3333  plane waves:   10042
 k-point  27 :   0.5000 0.5000 0.3333  plane waves:   10050
 k-point  28 :  -0.3333 0.5000 0.3333  plane waves:   10044
 k-point  29 :  -0.3333-0.3333 0.3333  plane waves:   10059
 k-point  30 :   0.5000 0.5000 0.5000  plane waves:   10026

 maximum and minimum number of plane-waves per node :      5056     4952

 maximum number of plane-waves:     10066
 maximum index in each direction:
   IXMAX=   15   IYMAX=   15   IZMAX=   14
   IXMIN=  -15   IYMIN=  -15   IZMIN=  -15

 parallel 3D FFT for wavefunctions:
    minimum data exchange during FFTs selected (reduces bandwidth)
 parallel 3D FFT for charge:
    minimum data exchange during FFTs selected (reduces bandwidth)

 Broyden mixing: mesh for mixing (old mesh)
   NGX = 29   NGY = 29   NGZ = 29
  (NGX  =120   NGY  =120   NGZ  =120)
  gives a total of  24389 points

 initial charge density was supplied:
 charge density of overlapping atoms calculated
 number of electron     196.0000000 magnetization
 keeping initial charge density in first step

 Maximum index for augmentation-charges        20378 (set IRDMAX)

 First call to EWALD:  gamma=   0.264
 Maximum number of real-space cells 3x 3x 3
 Maximum number of reciprocal cells 3x 3x 3

--------------------------------------- Iteration      1(   1)  ---------------------------------------

 eigenvalue-minimisations  :  7548
 total energy-change (2. order) : 0.2304691E+04  (-0.1342702E+05)
 number of electron     196.0000000 magnetization
 augmentation part      196.0000000 magnetization

 Free energy of the ion-electron system (eV)
  alpha Z        PSCENC =      1109.90609809
  Ewald energy   TEWEN  =    -16928.55993872
  -Hartree energ DENC   =     -6144.25842449
  -exchange      EXHF   =         0.00000000
  -V(xc)+E(xc)   XCENC  =       936.67546473
  PAW double counting   =     18333.95277542   -18252.26986835
  entropy T*S    EENTRO =        -0.00233501
  eigenvalues    EBANDS =       204.91275381
  atomic energy  EATOM  =     23044.33489042
  free energy    TOTEN  =      2304.69141591 eV

  energy without entropy =     2304.69375092  energy(sigma->0) =     2304.69258342

[...]

 eigenvalue-minimisations  :  7752
 total energy-change (2. order) :-0.2612278E+04  (-0.2542057E+04)
 number of electron     196.0000000 magnetization
 augmentation part      196.0000000 magnetization

[...]

 eigenvalue-minimisations  :     0
 total energy-change (2. order) :-0.5831680E-08  ( 0.1001205E-07)
 number of electron     196.0000013 magnetization
 augmentation part       28.8328091 magnetization

[...]

 eigenvalue-minimisations  :     0
 total energy-change (2. order) :-0.1270746E-07  (-0.2166865E-08)
 number of electron     196.0000013 magnetization
 augmentation part       28.8328096 magnetization

[...]

--------------------------------------- Iteration      1(  35)  ---------------------------------------

 eigenvalue-minimisations  :     0
 total energy-change (2. order) : 0.1346052E-09  (-0.6149153E-09)
 number of electron     196.0000013 magnetization
 augmentation part       28.8328099 magnetization

 Free energy of the ion-electron system (eV)
  alpha Z        PSCENC =      1109.90609809
  Ewald energy   TEWEN  =    -16928.55993872
  -Hartree energ DENC   =     -6004.76002639
  -exchange      EXHF   =         0.00000000
  -V(xc)+E(xc)   XCENC  =       959.98230907
  PAW double counting   =     27983.97145474   -27938.90181367
  entropy T*S    EENTRO =        -0.00273100
  eigenvalues    EBANDS =     -2573.49732235
  atomic energy  EATOM  =     23044.33489042
  free energy    TOTEN  =      -347.52707979 eV

  energy without entropy =     -347.52434879  energy(sigma->0) =     -347.52571429

  average scaling for gradient   0.8821

 average (electrostatic) potential at core
  the test charge radii are     0.7672  1.0818  0.9892
  (the norm of the test charge is              1.0000)
       1 -24.5171       2 -24.5162       3 -24.5162       4 -24.5171       5 -76.7566
       6 -76.7569       7 -76.7569       8 -76.2811       9 -76.7566      10 -76.2806
      11 -76.7566      12 -76.7569      13 -76.7566      14 -76.7569      15 -76.2818
      16 -76.2806      17 -82.4957      18 -82.4957      19 -82.4959      20 -82.4959

 E-fermi :   9.8768     XC(G=0): -12.8377     alpha+bet :-17.1136

 Fermi energy:         9.8768474049

 k-point     1 :       0.0000    0.0000    0.0000
  band No.  band energies     occupation
      1     -53.3953      2.00000
      2     -53.2081      2.00000
      3     -53.2078      2.00000
      4     -52.9561      2.00000
      5     -52.9124      2.00000
      6     -52.9124      2.00000
      7     -52.8642      2.00000
      8     -52.8542      2.00000
      9     -52.6839      2.00000
     10     -52.3492      2.00000
     11     -52.3487      2.00000
     12     -52.1927      2.00000
     13     -28.9668      2.00000
     14     -28.6635      2.00000
     15     -28.6634      2.00000
     16     -28.2362      2.00000
     17     -26.9174      2.00000
     18     -26.8101      2.00000
     19     -26.8100      2.00000
     20     -26.8032      2.00000
     21     -26.6826      2.00000
     22     -26.6825      2.00000
     23     -26.6549      2.00000
     24     -26.6189      2.00000
     25     -26.5923      2.00000
     26     -26.5826      2.00000
     27     -26.5823      2.00000
     28     -26.4225      2.00000
     29     -26.3684      2.00000
     30     -26.3634      2.00000
     31     -26.2919      2.00000
     32     -26.2744      2.00000
     33     -26.2744      2.00000
     34     -26.2254      2.00000
     35     -26.1198      2.00000
     36     -26.1198      2.00000
     37     -26.1060      2.00000
     38     -25.9548      2.00000
     39     -25.9547      2.00000
     40     -25.9405      2.00000
     41     -25.9112      2.00000
     42     -25.9108      2.00000
     43     -25.7441      2.00000
     44     -25.5911      2.00000
     45     -24.5479      2.00000
     46     -24.3648      2.00000
     47     -24.3646      2.00000
     48     -24.2004      2.00000
     49      -1.4853      2.00000
     50      -0.1739      2.00000
     51       0.9893      2.00000
     52       1.6164      2.00000
     53       1.6168      2.00000
     54       2.2184      2.00000
     55       2.3005      2.00000
     56       2.3012      2.00000
     57       3.4649      2.00000
     58       3.6746      2.00000
     59       3.8772      2.00000
     60       4.0207      2.00000
[...]
    106      10.6468      0.00000
    107      10.8401      0.00000
    108      11.2889      0.00000
    109      11.2890      0.00000
    110      11.3168      0.00000
    111      11.3901      0.00000
    112      11.4458      0.00000
    113      11.4459      0.00000
    114      11.5589      0.00000
    115      11.7633      0.00000
    116      12.0759      0.00000
    117      12.1232      0.00000
    118      12.1234      0.00000
    119      13.3186      0.00000
    120      13.6757      0.00000

[...]

 k-point    30 :       0.5000    0.5000    0.5000
  band No.  band energies     occupation
      1     -53.3920      2.00000
      2     -53.2112      2.00000
      3     -53.2109      2.00000
      4     -52.9587      2.00000
      5     -52.9098      2.00000
      6     -52.9098      2.00000
      7     -52.8667      2.00000
      8     -52.8517      2.00000
      9     -52.6807      2.00000
     10     -52.3518      2.00000
     11     -52.3512      2.00000
     12     -52.1902      2.00000
     13     -28.9750      2.00000
     14     -28.6557      2.00000
     15     -28.6556      2.00000
     16     -28.2427      2.00000
     17     -26.9112      2.00000
     18     -26.8155      2.00000
     19     -26.8154      2.00000
     20     -26.8099      2.00000
     21     -26.7381      2.00000
     22     -26.6765      2.00000
     23     -26.6764      2.00000
     24     -26.6143      2.00000
     25     -26.5984      2.00000
     26     -26.5066      2.00000
     27     -26.5062      2.00000
     28     -26.4148      2.00000
     29     -26.3689      2.00000
     30     -26.3299      2.00000
     31     -26.3299      2.00000
     32     -26.3116      2.00000
     33     -26.2768      2.00000
     34     -26.2373      2.00000
     35     -26.1852      2.00000
     36     -26.1256      2.00000
     37     -26.1255      2.00000
     38     -25.9489      2.00000
     39     -25.9488      2.00000
     40     -25.9363      2.00000
     41     -25.8558      2.00000
     42     -25.8552      2.00000
     43     -25.7974      2.00000
     44     -25.5944      2.00000
     45     -24.5490      2.00000
     46     -24.3633      2.00000
     47     -24.3631      2.00000
     48     -24.2022      2.00000
     49      -0.3189      2.00000
     50      -0.0128      2.00000
     51       0.0040      2.00000
     52       0.0047      2.00000
     53       1.5096      2.00000
     54       1.5102      2.00000
     55       2.5701      2.00000
     56       3.4502      2.00000
     57       3.7895      2.00000
     58       3.9916      2.00000
     59       3.9916      2.00000
     60       4.2685      2.00000
[...]
    106      10.5361      0.00000
    107      11.2486      0.00000
    108      11.2791      0.00000
    109      11.4222      0.00000
    110      11.4638      0.00000
    111      11.4640      0.00000
    112      11.6456      0.00000
    113      11.8322      0.00000
    114      11.8340      0.00000
    115      12.0638      0.00000
    116      12.4594      0.00000
    117      12.7826      0.00000
    118      12.8046      0.00000
    119      12.8219      0.00000
    120      12.9633      0.00000

 soft charge-density along one line, spin component           1
         0         1         2         3         4         5         6         7         8         9
 total charge-density along one line

------------------------ aborting loop because EDIFF is reached ----------------------------------------

  FREE ENERGIE OF THE ION-ELECTRON SYSTEM (eV)
  free  energy   TOTEN  =      -347.52707979 eV

  energy  without entropy=     -347.52434879  energy(sigma->0) =     -347.52571429

 writing wavefunctions