 vasp.6.2.0 18Jan21 (build Jan 05 2022 15:41:44) complex

 executed on             LinuxIFC date 2025.05.07  21:31:33

 INCAR:
   SYSTEM = routine with relax: pwdword
   ICHARG = 2
   NPAR = 6
   KPAR = 2
   NCORE = 2
   ADDGRID = T
   PREC = Acc
   ENCUT = 600
   METAGGA = R2SCAN
   LASPH = .TRUE.
   LMIXTAU = .FALSE.
   ALGO = A
   EDIFF = 1E-9
   NELM = 100
   NELMIN = 6
   IALGO = 38
   LREAL = F
   NSW = 0
   ISIF = -1
   ISMEAR = 0
   SIGMA = 0.02

 POTCAR:    PAW_PBE Mo_sv 02Feb2006
 POTCAR:    PAW_PBE Si 05Jan2001
|           W    W    AA    RRRRR   N    N  II  N    N   GGGG   !!!           |
|           W    W   A  A   R    R  NN   N  II  NN   N  G    G  !!!           |
|           W    W  A    A  R    R  N N  N  II  N N  N  G       !!!           |
|           W WW W  AAAAAA  RRRRR   N  N N  II  N  N N  G  GGG   !            |
|           WW  WW  A    A  R   R   N   NN  II  N   NN  G    G                |
|           W    W  A    A  R    R  N    N  II  N    N   GGGG   !!!           |
|     For optimal performance we recommend to set                             |
|       NCORE = 2 up to number-of-cores-per-socket                            |
|     This setting can greatly improve the performance of VASP for DFT.       |
|     The default, NCORE=1 might be grossly inefficient on modern             |
|     multi-core architectures or massively parallel machines. Do your        |
|     Unfortunately you need to use the default for GW and RPA                |
|     calculations (for HF NCORE is supported but not extensively tested      |
|     yet).                                                                   |

 POTCAR:    PAW_PBE Mo_sv 02Feb2006
   VRHFIN =Mo: 4p5s4d

   TITEL  = PAW_PBE Mo_sv 02Feb2006
   POMASS =   95.940; ZVAL   =   14.000    mass and valenz
   ENMAX  =  242.676; ENMIN  =  182.007 eV

 POTCAR:    PAW_PBE Si 05Jan2001
   VRHFIN =Si: s2p2

   TITEL  = PAW_PBE Si 05Jan2001
   POMASS =   28.085; ZVAL   =    4.000    mass and valenz
   ENMAX  =  245.345; ENMIN  =  184.009 eV

  PAW_PBE Mo_sv 02Feb2006               :
  PAW_PBE Si 05Jan2001                  :

 POSCAR: EA265
  positions in direct lattice

 METAGGA = R2SCA    LMAXTAU =  6    LMIXTAU =  F

 ion  position               nearest neighbor table
   1  0.333  0.667  0.500-   2 2.53   2 2.53   2 2.53   2 2.53   2 2.53   2 2.53
   2  0.000  0.000  0.000-   1 2.53   1 2.53   1 2.53   1 2.53   1 2.53   1 2.53

  LATTYP: Found a hexagonal cell.
 ALAT       =     3.1335881620
 C/A-ratio  =     1.1243790881

  Lattice vectors:

 A1 = (   1.5667940000,  -2.7137670000,   0.0000000000)
 A2 = (   1.5667940000,   2.7137670000,   0.0000000000)
 A3 = (   0.0000000000,   0.0000000000,   3.5233410000)

Analysis of symmetry for initial positions (statically):
 Subroutine PRICEL returns:
 Original cell was already a primitive cell.

 Routine SETGRP: Setting up the symmetry group for a
 hexagonal supercell.

 Subroutine GETGRP returns: Found 12 space group operations
 (whereof 12 operations were pure point group operations)
 out of a pool of 24 trial point group operations.

The static configuration has the point symmetry D_3h.

Analysis of symmetry for dynamics (positions and initial velocities):
 Subroutine PRICEL returns:
 Original cell was already a primitive cell.

 Routine SETGRP: Setting up the symmetry group for a
 hexagonal supercell.

 Subroutine GETGRP returns: Found 12 space group operations
 (whereof 12 operations were pure point group operations)
 out of a pool of 24 trial point group operations.

The dynamic configuration has the point symmetry D_3h.

 Subroutine INISYM returns: Found 12 space group operations
 (whereof 12 operations are pure point group operations),
 and found     1 'primitive' translations

                                     Primitive cell

  volume of cell :      29.9619

  direct lattice vectors                    reciprocal lattice vectors
     1.566794000 -2.713767000  0.000000000     0.319122999 -0.184245737  0.000000000
     1.566794000  2.713767000  0.000000000     0.319122999  0.184245737  0.000000000
     0.000000000  0.000000000  3.523341000     0.000000000  0.000000000  0.283821521

  length of vectors
     3.133588162  3.133588162  3.523341000     0.368491492  0.368491492  0.283821521

  position of ions in fractional coordinates (direct lattice)
     0.333333000  0.666667000  0.500000000
     0.000000000  0.000000000  0.000000000

  ion indices of the primitive-cell ions
   primitive index   ion index
                 1           1
                 2           2

 KPOINTS: EA

Automatic generation of k-mesh.
 Grid dimensions read from file:
 generate k-points for:   13   13   10

 Generating k-lattice:

  Cartesian coordinates                     Fractional coordinates (reciprocal lattice)
     0.024547923 -0.014172749  0.000000000     0.076923077  0.000000000  0.000000000
     0.024547923  0.014172749  0.000000000     0.000000000  0.076923077  0.000000000
     0.000000000  0.000000000  0.028382152     0.000000000  0.000000000  0.100000000

  Length of vectors
     0.028345499  0.028345499  0.028382152

  Shift w.r.t. Gamma in fractional coordinates (k-lattice)
     0.000000000  0.000000000  0.000000000

 Subroutine IBZKPT returns following result:

 Found    126 irreducible k-points:

 Following reciprocal coordinates:
            Coordinates               Weight
  0.000000  0.000000  0.000000      1.000000
  0.076923  0.000000  0.000000      6.000000
  0.153846  0.000000  0.000000      6.000000
  0.230769  0.000000  0.000000      6.000000
  0.307692  0.000000  0.000000      6.000000
  0.384615  0.000000  0.000000      6.000000
  0.461538  0.000000  0.000000      6.000000
  0.076923  0.076923  0.000000      6.000000
  0.153846  0.076923  0.000000     12.000000
  0.230769  0.076923  0.000000     12.000000
  0.307692  0.076923  0.000000     12.000000
  0.384615  0.076923  0.000000     12.000000
  0.461538  0.076923  0.000000      6.000000
  0.153846  0.153846  0.000000      6.000000
  0.230769  0.153846  0.000000     12.000000
  0.307692  0.153846  0.000000     12.000000
  0.384615  0.153846  0.000000     12.000000
  0.230769  0.230769  0.000000      6.000000
  0.307692  0.230769  0.000000     12.000000
  0.384615  0.230769  0.000000      6.000000
  0.307692  0.307692  0.000000      6.000000
  0.000000  0.000000  0.100000      2.000000
  0.076923  0.000000  0.100000     12.000000
  0.153846  0.000000  0.100000     12.000000
  0.230769  0.000000  0.100000     12.000000
  0.307692  0.000000  0.100000     12.000000
  0.384615  0.000000  0.100000     12.000000
  0.461538  0.000000  0.100000     12.000000
  0.076923  0.076923  0.100000     12.000000
  0.153846  0.076923  0.100000     24.000000
  0.230769  0.076923  0.100000     24.000000
  0.307692  0.076923  0.100000     24.000000
  0.384615  0.076923  0.100000     24.000000
  0.461538  0.076923  0.100000     12.000000
  0.153846  0.153846  0.100000     12.000000
  0.230769  0.153846  0.100000     24.000000
  0.307692  0.153846  0.100000     24.000000
  0.384615  0.153846  0.100000     24.000000
  0.230769  0.230769  0.100000     12.000000
  0.307692  0.230769  0.100000     24.000000
  0.384615  0.230769  0.100000     12.000000
  0.307692  0.307692  0.100000     12.000000
  0.000000  0.000000  0.200000      2.000000
  0.076923  0.000000  0.200000     12.000000
  0.153846  0.000000  0.200000     12.000000
  0.230769  0.000000  0.200000     12.000000
  0.307692  0.000000  0.200000     12.000000
  0.384615  0.000000  0.200000     12.000000
  0.461538  0.000000  0.200000     12.000000
  0.076923  0.076923  0.200000     12.000000
  0.153846  0.076923  0.200000     24.000000
  0.230769  0.076923  0.200000     24.000000
  0.307692  0.076923  0.200000     24.000000
  0.384615  0.076923  0.200000     24.000000
  0.461538  0.076923  0.200000     12.000000
  0.153846  0.153846  0.200000     12.000000
  0.230769  0.153846  0.200000     24.000000
  0.307692  0.153846  0.200000     24.000000
  0.384615  0.153846  0.200000     24.000000
  0.230769  0.230769  0.200000     12.000000
[...]
  0.461538  0.000000  0.500000      6.000000
  0.076923  0.076923  0.500000      6.000000
  0.153846  0.076923  0.500000     12.000000
  0.230769  0.076923  0.500000     12.000000
  0.307692  0.076923  0.500000     12.000000
  0.384615  0.076923  0.500000     12.000000
  0.461538  0.076923  0.500000      6.000000
  0.153846  0.153846  0.500000      6.000000
  0.230769  0.153846  0.500000     12.000000
  0.307692  0.153846  0.500000     12.000000
  0.384615  0.153846  0.500000     12.000000
  0.230769  0.230769  0.500000      6.000000
  0.307692  0.230769  0.500000     12.000000
  0.384615  0.230769  0.500000      6.000000
  0.307692  0.307692  0.500000      6.000000

 Following cartesian coordinates:
            Coordinates               Weight
  0.000000  0.000000  0.000000      1.000000
  0.024548 -0.014173  0.000000      6.000000
  0.049096 -0.028345  0.000000      6.000000
  0.073644 -0.042518  0.000000      6.000000
  0.098192 -0.056691  0.000000      6.000000
  0.122740 -0.070864  0.000000      6.000000
  0.147288 -0.085036  0.000000      6.000000
  0.049096  0.000000  0.000000      6.000000
  0.073644 -0.014173  0.000000     12.000000
  0.098192 -0.028345  0.000000     12.000000
  0.122740 -0.042518  0.000000     12.000000
  0.147288 -0.056691  0.000000     12.000000
  0.171835 -0.070864  0.000000      6.000000
  0.098192  0.000000  0.000000      6.000000
  0.122740 -0.014173  0.000000     12.000000
  0.147288 -0.028345  0.000000     12.000000
  0.171835 -0.042518  0.000000     12.000000
  0.147288  0.000000  0.000000      6.000000
  0.171835 -0.014173  0.000000     12.000000
  0.196383 -0.028345  0.000000      6.000000
  0.196383  0.000000  0.000000      6.000000
  0.000000  0.000000  0.028382      2.000000
  0.024548 -0.014173  0.028382     12.000000
  0.049096 -0.028345  0.028382     12.000000
  0.073644 -0.042518  0.028382     12.000000
  0.098192 -0.056691  0.028382     12.000000
  0.122740 -0.070864  0.028382     12.000000
  0.147288 -0.085036  0.028382     12.000000
  0.049096  0.000000  0.028382     12.000000
  0.073644 -0.014173  0.028382     24.000000
  0.098192 -0.028345  0.028382     24.000000
  0.122740 -0.042518  0.028382     24.000000
  0.147288 -0.056691  0.028382     24.000000
  0.171835 -0.070864  0.028382     12.000000
  0.098192  0.000000  0.028382     12.000000
  0.122740 -0.014173  0.028382     24.000000
  0.147288 -0.028345  0.028382     24.000000
  0.171835 -0.042518  0.028382     24.000000
  0.147288  0.000000  0.028382     12.000000
  0.171835 -0.014173  0.028382     24.000000
  0.196383 -0.028345  0.028382     12.000000
  0.196383  0.000000  0.028382     12.000000
  0.000000  0.000000  0.056764      2.000000
  0.024548 -0.014173  0.056764     12.000000
  0.049096 -0.028345  0.056764     12.000000
  0.073644 -0.042518  0.056764     12.000000
  0.098192 -0.056691  0.056764     12.000000
  0.122740 -0.070864  0.056764     12.000000
  0.147288 -0.085036  0.056764     12.000000
  0.049096  0.000000  0.056764     12.000000
  0.073644 -0.014173  0.056764     24.000000
  0.098192 -0.028345  0.056764     24.000000
[...]
   0.19638338  0.00000000  0.00000000       0.004
   0.00000000  0.00000000  0.02838215       0.001
   0.02454792 -0.01417275  0.02838215       0.007
   0.04909585 -0.02834550  0.02838215       0.007
   0.07364377 -0.04251825  0.02838215       0.007
   0.09819169 -0.05669100  0.02838215       0.007
   0.12273961 -0.07086374  0.02838215       0.007
   0.14728754 -0.08503649  0.02838215       0.007
   0.04909585  0.00000000  0.02838215       0.007
   0.07364377 -0.01417275  0.02838215       0.014
   0.09819169 -0.02834550  0.02838215       0.014
   0.12273961 -0.04251825  0.02838215       0.014
   0.14728754 -0.05669100  0.02838215       0.014
   0.17183546 -0.07086374  0.02838215       0.007
   0.09819169  0.00000000  0.02838215       0.007
   0.12273961 -0.01417275  0.02838215       0.014
   0.14728754 -0.02834550  0.02838215       0.014
   0.17183546 -0.04251825  0.02838215       0.014
   0.14728754  0.00000000  0.02838215       0.007
   0.17183546 -0.01417275  0.02838215       0.014
   0.19638338 -0.02834550  0.02838215       0.007
   0.19638338  0.00000000  0.02838215       0.007
   0.00000000  0.00000000  0.05676430       0.001
   0.02454792 -0.01417275  0.05676430       0.007
   0.04909585 -0.02834550  0.05676430       0.007
   0.07364377 -0.04251825  0.05676430       0.007
   0.09819169 -0.05669100  0.05676430       0.007
   0.12273961 -0.07086374  0.05676430       0.007
   0.14728754 -0.08503649  0.05676430       0.007
   0.04909585  0.00000000  0.05676430       0.007
   0.07364377 -0.01417275  0.05676430       0.014
   0.09819169 -0.02834550  0.05676430       0.014
   0.12273961 -0.04251825  0.05676430       0.014
   0.14728754 -0.05669100  0.05676430       0.014
   0.17183546 -0.07086374  0.05676430       0.007
   0.09819169  0.00000000  0.05676430       0.007
   0.12273961 -0.01417275  0.05676430       0.014
   0.14728754 -0.02834550  0.05676430       0.014
   0.17183546 -0.04251825  0.05676430       0.014
   0.14728754  0.00000000  0.05676430       0.007
[...]
   0.14728754 -0.08503649  0.14191076       0.004
   0.04909585  0.00000000  0.14191076       0.004
   0.07364377 -0.01417275  0.14191076       0.007
   0.09819169 -0.02834550  0.14191076       0.007
   0.12273961 -0.04251825  0.14191076       0.007
   0.14728754 -0.05669100  0.14191076       0.007
   0.17183546 -0.07086374  0.14191076       0.004
   0.09819169  0.00000000  0.14191076       0.004
   0.12273961 -0.01417275  0.14191076       0.007
   0.14728754 -0.02834550  0.14191076       0.007
   0.17183546 -0.04251825  0.14191076       0.007
   0.14728754  0.00000000  0.14191076       0.004
   0.17183546 -0.01417275  0.14191076       0.007
   0.19638338 -0.02834550  0.14191076       0.004
   0.19638338  0.00000000  0.14191076       0.004

 k-points in reciprocal lattice and weights: EA
   0.00000000  0.00000000  0.00000000       0.001
   0.07692308  0.00000000  0.00000000       0.004
   0.15384615  0.00000000  0.00000000       0.004
   0.23076923  0.00000000  0.00000000       0.004
   0.30769231  0.00000000  0.00000000       0.004
   0.38461538  0.00000000  0.00000000       0.004
   0.46153846  0.00000000  0.00000000       0.004
   0.07692308  0.07692308  0.00000000       0.004
   0.15384615  0.07692308  0.00000000       0.007
   0.23076923  0.07692308  0.00000000       0.007
   0.30769231  0.07692308  0.00000000       0.007
   0.38461538  0.07692308  0.00000000       0.007
   0.46153846  0.07692308  0.00000000       0.004
   0.15384615  0.15384615  0.00000000       0.004
   0.23076923  0.15384615  0.00000000       0.007
   0.30769231  0.15384615  0.00000000       0.007
   0.38461538  0.15384615  0.00000000       0.007
   0.23076923  0.23076923  0.00000000       0.004
   0.30769231  0.23076923  0.00000000       0.007
   0.38461538  0.23076923  0.00000000       0.004
   0.30769231  0.30769231  0.00000000       0.004
   0.00000000  0.00000000  0.10000000       0.001
   0.07692308  0.00000000  0.10000000       0.007
   0.15384615  0.00000000  0.10000000       0.007
   0.23076923  0.00000000  0.10000000       0.007
   0.30769231  0.00000000  0.10000000       0.007
   0.38461538  0.00000000  0.10000000       0.007
   0.46153846  0.00000000  0.10000000       0.007
   0.07692308  0.07692308  0.10000000       0.007
   0.15384615  0.07692308  0.10000000       0.014
   0.23076923  0.07692308  0.10000000       0.014
   0.30769231  0.07692308  0.10000000       0.014
   0.38461538  0.07692308  0.10000000       0.014
   0.46153846  0.07692308  0.10000000       0.007
   0.15384615  0.15384615  0.10000000       0.007
   0.23076923  0.15384615  0.10000000       0.014
   0.30769231  0.15384615  0.10000000       0.014
   0.38461538  0.15384615  0.10000000       0.014
   0.23076923  0.23076923  0.10000000       0.007
   0.30769231  0.23076923  0.10000000       0.014
   0.38461538  0.23076923  0.10000000       0.007
   0.30769231  0.30769231  0.10000000       0.007
   0.00000000  0.00000000  0.20000000       0.001
   0.07692308  0.00000000  0.20000000       0.007
   0.15384615  0.00000000  0.20000000       0.007
   0.23076923  0.00000000  0.20000000       0.007
   0.30769231  0.00000000  0.20000000       0.007
   0.38461538  0.00000000  0.20000000       0.007
   0.46153846  0.00000000  0.20000000       0.007
   0.07692308  0.07692308  0.20000000       0.007
   0.15384615  0.07692308  0.20000000       0.014
   0.23076923  0.07692308  0.20000000       0.014
   0.30769231  0.07692308  0.20000000       0.014
   0.38461538  0.07692308  0.20000000       0.014
   0.46153846  0.07692308  0.20000000       0.007
   0.15384615  0.15384615  0.20000000       0.007
   0.23076923  0.15384615  0.20000000       0.014
   0.30769231  0.15384615  0.20000000       0.014
   0.38461538  0.15384615  0.20000000       0.014
   0.23076923  0.23076923  0.20000000       0.007
[...]
   0.46153846  0.00000000  0.50000000       0.004
   0.07692308  0.07692308  0.50000000       0.004
   0.15384615  0.07692308  0.50000000       0.007
   0.23076923  0.07692308  0.50000000       0.007
   0.30769231  0.07692308  0.50000000       0.007
   0.38461538  0.07692308  0.50000000       0.007
   0.46153846  0.07692308  0.50000000       0.004
   0.15384615  0.15384615  0.50000000       0.004
   0.23076923  0.15384615  0.50000000       0.007
   0.30769231  0.15384615  0.50000000       0.007
   0.38461538  0.15384615  0.50000000       0.007
   0.23076923  0.23076923  0.50000000       0.004
   0.30769231  0.23076923  0.50000000       0.007
   0.38461538  0.23076923  0.50000000       0.004
   0.30769231  0.30769231  0.50000000       0.004

 position of ions in fractional coordinates (direct lattice)
   0.33333300  0.66666700  0.50000000
   0.00000000  0.00000000  0.00000000

 position of ions in cartesian coordinates  (Angst):
   1.56679400  0.90459081  1.76167050
   0.00000000  0.00000000  0.00000000

 k-point   1 :   0.0000 0.0000 0.0000  plane waves:    1011
 k-point   2 :   0.0769 0.0000 0.0000  plane waves:    1003
 k-point   3 :   0.1538 0.0000 0.0000  plane waves:    1001
 k-point   4 :   0.2308 0.0000 0.0000  plane waves:    1001
 k-point   5 :   0.3077 0.0000 0.0000  plane waves:     993
 k-point   6 :   0.3846 0.0000 0.0000  plane waves:     995
 k-point   7 :   0.4615 0.0000 0.0000  plane waves:    1004
 k-point   8 :   0.0769 0.0769 0.0000  plane waves:    1003
 k-point   9 :   0.1538 0.0769 0.0000  plane waves:    1005
 k-point  10 :   0.2308 0.0769 0.0000  plane waves:    1002
 k-point  11 :   0.3077 0.0769 0.0000  plane waves:     999
 k-point  12 :   0.3846 0.0769 0.0000  plane waves:     998
 k-point  13 :   0.4615 0.0769 0.0000  plane waves:     998
 k-point  14 :   0.1538 0.1538 0.0000  plane waves:    1002
 k-point  15 :   0.2308 0.1538 0.0000  plane waves:     993
 k-point  16 :   0.3077 0.1538 0.0000  plane waves:     990
 k-point  17 :   0.3846 0.1538 0.0000  plane waves:     996
 k-point  18 :   0.2308 0.2308 0.0000  plane waves:     992
 k-point  19 :   0.3077 0.2308 0.0000  plane waves:     986
 k-point  20 :   0.3846 0.2308 0.0000  plane waves:     986
 k-point  21 :   0.3077 0.3077 0.0000  plane waves:     980
 k-point  22 :   0.0000 0.0000 0.1000  plane waves:    1010
 k-point  23 :   0.0769 0.0000 0.1000  plane waves:    1003
 k-point  24 :   0.1538 0.0000 0.1000  plane waves:    1007
 k-point  25 :   0.2308 0.0000 0.1000  plane waves:    1003
 k-point  26 :   0.3077 0.0000 0.1000  plane waves:    1005
 k-point  27 :   0.3846 0.0000 0.1000  plane waves:     999
 k-point  28 :   0.4615 0.0000 0.1000  plane waves:     995
 k-point  29 :   0.0769 0.0769 0.1000  plane waves:    1004
 k-point  30 :   0.1538 0.0769 0.1000  plane waves:    1002
 k-point  31 :   0.2308 0.0769 0.1000  plane waves:    1005
 k-point  32 :   0.3077 0.0769 0.1000  plane waves:     998
 k-point  33 :   0.3846 0.0769 0.1000  plane waves:    1003
 k-point  34 :   0.4615 0.0769 0.1000  plane waves:    1006
 k-point  35 :   0.1538 0.1538 0.1000  plane waves:    1002
 k-point  36 :   0.2308 0.1538 0.1000  plane waves:     996
 k-point  37 :   0.3077 0.1538 0.1000  plane waves:     993
 k-point  38 :   0.3846 0.1538 0.1000  plane waves:     999
 k-point  39 :   0.2308 0.2308 0.1000  plane waves:     990
 k-point  40 :   0.3077 0.2308 0.1000  plane waves:     985
 k-point  41 :   0.3846 0.2308 0.1000  plane waves:     988
 k-point  42 :   0.3077 0.3077 0.1000  plane waves:     982
 k-point  43 :   0.0000 0.0000 0.2000  plane waves:     992
 k-point  44 :   0.0769 0.0000 0.2000  plane waves:    1003
 k-point  45 :   0.1538 0.0000 0.2000  plane waves:    1004
 k-point  46 :   0.2308 0.0000 0.2000  plane waves:     999
 k-point  47 :   0.3077 0.0000 0.2000  plane waves:     996
 k-point  48 :   0.3846 0.0000 0.2000  plane waves:    1003
 k-point  49 :   0.4615 0.0000 0.2000  plane waves:    1004
 k-point  50 :   0.0769 0.0769 0.2000  plane waves:    1002
 k-point  51 :   0.1538 0.0769 0.2000  plane waves:    1000
 k-point  52 :   0.2308 0.0769 0.2000  plane waves:    1000
 k-point  53 :   0.3077 0.0769 0.2000  plane waves:    1002
 k-point  54 :   0.3846 0.0769 0.2000  plane waves:    1001
 k-point  55 :   0.4615 0.0769 0.2000  plane waves:    1004
 k-point  56 :   0.1538 0.1538 0.2000  plane waves:    1005
 k-point  57 :   0.2308 0.1538 0.2000  plane waves:    1000
 k-point  58 :   0.3077 0.1538 0.2000  plane waves:    1003
 k-point  59 :   0.3846 0.1538 0.2000  plane waves:    1000
 k-point  60 :   0.2308 0.2308 0.2000  plane waves:     998
[...]
 k-point 112 :   0.4615 0.0000 0.5000  plane waves:    1000
 k-point 113 :   0.0769 0.0769 0.5000  plane waves:     996
 k-point 114 :   0.1538 0.0769 0.5000  plane waves:    1000
 k-point 115 :   0.2308 0.0769 0.5000  plane waves:    1002
 k-point 116 :   0.3077 0.0769 0.5000  plane waves:    1002
 k-point 117 :   0.3846 0.0769 0.5000  plane waves:    1000
 k-point 118 :   0.4615 0.0769 0.5000  plane waves:     996
 k-point 119 :   0.1538 0.1538 0.5000  plane waves:    1002
 k-point 120 :   0.2308 0.1538 0.5000  plane waves:    1014
 k-point 121 :   0.3077 0.1538 0.5000  plane waves:    1000
 k-point 122 :   0.3846 0.1538 0.5000  plane waves:    1006
 k-point 123 :   0.2308 0.2308 0.5000  plane waves:    1012
 k-point 124 :   0.3077 0.2308 0.5000  plane waves:    1008
 k-point 125 :   0.3846 0.2308 0.5000  plane waves:    1002
 k-point 126 :   0.3077 0.3077 0.5000  plane waves:    1002

 maximum and minimum number of plane-waves per node :       516      478

 maximum number of plane-waves:      1022
 maximum index in each direction:
   IXMAX=    6   IYMAX=    6   IZMAX=    7
   IXMIN=   -6   IYMIN=   -6   IZMIN=   -7

 parallel 3D FFT for wavefunctions:
    minimum data exchange during FFTs selected (reduces bandwidth)
 parallel 3D FFT for charge:
    minimum data exchange during FFTs selected (reduces bandwidth)

 Broyden mixing: mesh for mixing (old mesh)
   NGX = 13   NGY = 13   NGZ = 15
  (NGX  = 56   NGY  = 56   NGZ  = 56)
  gives a total of   2535 points

 initial charge density was supplied:
 charge density of overlapping atoms calculated
 number of electron      18.0000000 magnetization
 keeping initial charge density in first step

 Maximum index for augmentation-charges        21356 (set IRDMAX)

 First call to EWALD:  gamma=   0.571
 Maximum number of real-space cells 3x 3x 2
 Maximum number of reciprocal cells 3x 3x 3

--------------------------------------- Iteration      1(   1)  ---------------------------------------

 eigenvalue-minimisations  :  4572
 total energy-change (2. order) : 0.1010694E+03  (-0.1288272E+04)
 number of electron      18.0000000 magnetization
 augmentation part       18.0000000 magnetization

 Free energy of the ion-electron system (eV)
  alpha Z        PSCENC =        84.13630332
  Ewald energy   TEWEN  =     -1588.22356896
  -Hartree energ DENC   =      -421.31187684
  -exchange      EXHF   =         0.00000000
  -V(xc)+E(xc)   XCENC  =        72.11611330
  PAW double counting   =      1569.42148506    -1555.19205562
  entropy T*S    EENTRO =        -0.00029546
  eigenvalues    EBANDS =       -25.22580788
  atomic energy  EATOM  =      1965.34908032
  free energy    TOTEN  =       101.06937723 eV

  energy without entropy =      101.06967270  energy(sigma->0) =      101.06952496

[...]

 eigenvalue-minimisations  :  5346
 total energy-change (2. order) :-0.1413621E+03  (-0.1381938E+03)
 number of electron      18.0000000 magnetization
 augmentation part       18.0000000 magnetization

[...]

 eigenvalue-minimisations  :     0
 total energy-change (2. order) : 0.9145919E+01  (-0.1829157E+01)
 number of electron      18.0000000 magnetization
 augmentation part        2.2448657 magnetization

[...]

--------------------------------------- Iteration      1(  22)  ---------------------------------------

 eigenvalue-minimisations  :     0
 total energy-change (2. order) :-0.2569323E-10  (-0.2853163E-09)
 number of electron      18.0000000 magnetization
 augmentation part        2.2389341 magnetization

 Free energy of the ion-electron system (eV)
  alpha Z        PSCENC =        84.13630332
  Ewald energy   TEWEN  =     -1588.22356896
  -Hartree energ DENC   =      -395.17163399
  -exchange      EXHF   =         0.00000000
  -V(xc)+E(xc)   XCENC  =        73.65858779
  PAW double counting   =      2400.79555544    -2389.72739191
  entropy T*S    EENTRO =        -0.00018205
  eigenvalues    EBANDS =      -186.17781028
  atomic energy  EATOM  =      1965.34908032
  free energy    TOTEN  =       -35.36106034 eV

  energy without entropy =      -35.36087829  energy(sigma->0) =      -35.36096931

  average scaling for gradient   1.2697

 average (electrostatic) potential at core
  the test charge radii are     1.0818  0.9892
  (the norm of the test charge is              1.0000)
       1 -75.7180       2 -81.1428

 E-fermi :  10.5680     XC(G=0): -13.2554     alpha+bet :-18.4330

 Fermi energy:        10.5680131889

 k-point     1 :       0.0000    0.0000    0.0000
  band No.  band energies     occupation
      1     -51.7958      2.00000
      2     -25.2228      2.00000
      3     -24.9610      2.00000
      4     -24.9610      2.00000
      5      -1.0104      2.00000
      6       7.1948      2.00000
      7       9.3658      2.00000
      8       9.3658      2.00000
      9      11.1337      0.00000
     10      11.6564      0.00000
     11      11.6564      0.00000
     12      18.2883      0.00000
     13      18.2884      0.00000
     14      19.5456      0.00000
     15      21.0825      0.00000
     16      21.7675      0.00000
     17      21.7675      0.00000
     18      26.0578      0.00000

[...]

 k-point   126 :       0.3077    0.3077    0.5000
  band No.  band energies     occupation
      1     -51.7337      2.00000
      2     -25.2895      2.00000
      3     -25.2518      2.00000
      4     -25.2208      2.00000
      5       3.3528      2.00000
      6       5.5161      2.00000
      7       6.9402      2.00000
      8       8.9501      2.00000
      9       9.7072      2.00000
     10      12.4759      0.00000
     11      15.8343      0.00000
     12      16.1169      0.00000
     13      16.3033      0.00000
     14      16.7906      0.00000
     15      17.5855      0.00000
     16      24.6489      0.00000
     17      25.6886      0.00000
     18      27.4632      0.00000

 soft charge-density along one line, spin component           1
         0         1         2         3         4         5         6         7         8         9
 total charge-density along one line

------------------------ aborting loop because EDIFF is reached ----------------------------------------

  FREE ENERGIE OF THE ION-ELECTRON SYSTEM (eV)
  free  energy   TOTEN  =       -35.36106034 eV

  energy  without entropy=      -35.36087829  energy(sigma->0) =      -35.36096931

 writing wavefunctions