 vasp.6.2.0 18Jan21 (build Jan 05 2022 15:41:44) complex

 executed on             LinuxIFC date 2025.05.07  18:11:46

 INCAR:
   SYSTEM = routine with relax: pwdword
   ICHARG = 2
   NPAR = 6
   KPAR = 2
   NCORE = 2
   ADDGRID = T
   PREC = Acc
   ENCUT = 600
   METAGGA = R2SCAN
   LASPH = .TRUE.
   LMIXTAU = .FALSE.
   ALGO = A
   EDIFF = 1E-9
   NELM = 100
   NELMIN = 6
   IALGO = 38
   LREAL = F
   NSW = 0
   ISIF = -1
   ISMEAR = 0
   SIGMA = 0.02

 POTCAR:    PAW_PBE B 06Sep2000
 POTCAR:    PAW_PBE Mo_sv 02Feb2006
 POTCAR:    PAW_PBE Si 05Jan2001
|           W    W    AA    RRRRR   N    N  II  N    N   GGGG   !!!           |
|           W    W   A  A   R    R  NN   N  II  NN   N  G    G  !!!           |
|           W    W  A    A  R    R  N N  N  II  N N  N  G       !!!           |
|           W WW W  AAAAAA  RRRRR   N  N N  II  N  N N  G  GGG   !            |
|           WW  WW  A    A  R   R   N   NN  II  N   NN  G    G                |
|           W    W  A    A  R    R  N    N  II  N    N   GGGG   !!!           |
|     For optimal performance we recommend to set                             |
|       NCORE = 2 up to number-of-cores-per-socket                            |
|     This setting can greatly improve the performance of VASP for DFT.       |
|     The default, NCORE=1 might be grossly inefficient on modern             |
|     multi-core architectures or massively parallel machines. Do your        |
|     Unfortunately you need to use the default for GW and RPA                |
|     calculations (for HF NCORE is supported but not extensively tested      |
|     yet).                                                                   |

 POTCAR:    PAW_PBE B 06Sep2000
   VRHFIN =B: s2p1

   TITEL  = PAW_PBE B 06Sep2000
   POMASS =   10.811; ZVAL   =    3.000    mass and valenz
   ENMAX  =  318.614; ENMIN  =  238.960 eV

 POTCAR:    PAW_PBE Mo_sv 02Feb2006
   VRHFIN =Mo: 4p5s4d

   TITEL  = PAW_PBE Mo_sv 02Feb2006
   POMASS =   95.940; ZVAL   =   14.000    mass and valenz
   ENMAX  =  242.676; ENMIN  =  182.007 eV

 POTCAR:    PAW_PBE Si 05Jan2001
   VRHFIN =Si: s2p2

   TITEL  = PAW_PBE Si 05Jan2001
   POMASS =   28.085; ZVAL   =    4.000    mass and valenz
   ENMAX  =  245.345; ENMIN  =  184.009 eV

  PAW_PBE B 06Sep2000                   :
  PAW_PBE Mo_sv 02Feb2006               :
  PAW_PBE Si 05Jan2001                  :

 POSCAR: EA147
  positions in direct lattice

 METAGGA = R2SCA    LMAXTAU =  6    LMIXTAU =  F

 ion  position               nearest neighbor table
   1  0.000  0.500  0.500-  11 2.30  12 2.30  13 2.30  14 2.30   9 2.30  10 2.30  15 2.30  16 2.30
                             3 2.55   5 2.55
   2  0.500  0.000  0.500-   9 2.30  10 2.30  15 2.30  16 2.30  13 2.30  14 2.30  11 2.30  12 2.30
                             7 2.55   8 2.55
   3  0.235  0.265  0.500-  11 2.51  13 2.51  10 2.51  16 2.51   1 2.55  15 2.71   9 2.71  14 2.71
                            12 2.71   4 3.21   4 3.21   6 3.21   6 3.21   5 3.46   5 3.46
   4  0.250  0.250  0.000-   9 2.31  13 2.31  11 2.31  15 2.31   7 3.21   8 3.21   3 3.21   3 3.21
                             7 3.21   8 3.21   5 3.21   5 3.21   6 3.45   6 3.45
   5  0.765  0.735  0.500-  12 2.51  14 2.51   9 2.51  15 2.51   1 2.55  10 2.71  16 2.71  13 2.71
                            11 2.71   6 3.21   6 3.21   4 3.21   4 3.21   3 3.46   3 3.46
   6  0.750  0.750  0.000-  10 2.31  14 2.31  12 2.31  16 2.31   8 3.21   7 3.21   5 3.21   5 3.21
                             7 3.21   8 3.21   3 3.21   3 3.21   4 3.45   4 3.45
   7  0.265  0.765  0.029-  12 2.51  13 2.51  10 2.51  15 2.51   2 2.55   9 2.71  16 2.71  11 2.71
                            14 2.71   4 3.21   6 3.21   6 3.21   4 3.21   8 3.46   8 3.46
   8  0.735  0.235  0.971-  11 2.51  14 2.51   9 2.51  16 2.51   2 2.55  15 2.71  10 2.71  12 2.71
                            13 2.71   6 3.21   4 3.21   4 3.21   6 3.21   7 3.46   7 3.46
   9  0.250  0.949  0.699-  16 2.16  12 2.16   2 2.30   1 2.30   4 2.31   5 2.51   8 2.51   3 2.71
                             7 2.71  13 3.05
  10  0.750  0.051  0.301-  15 2.16  11 2.16   2 2.30   1 2.30   6 2.31   3 2.51   7 2.51   5 2.71
                             8 2.71  14 3.05
  11  0.949  0.250  0.699-  14 2.16  10 2.16   1 2.30   2 2.30   4 2.31   8 2.51   3 2.51   5 2.71
                             7 2.71  15 3.05
  12  0.051  0.750  0.301-  13 2.16   9 2.16   1 2.30   2 2.30   6 2.31   7 2.51   5 2.51   3 2.71
                             8 2.71  16 3.05
  13  0.250  0.551  0.301-  12 2.16  16 2.16   1 2.30   2 2.30   4 2.31   7 2.51   3 2.51   5 2.71
                             8 2.71   9 3.05
  14  0.750  0.449  0.699-  11 2.16  15 2.16   1 2.30   2 2.30   6 2.31   8 2.51   5 2.51   3 2.71
                             7 2.71  10 3.05
  15  0.551  0.250  0.301-  10 2.16  14 2.16   2 2.30   1 2.30   4 2.31   5 2.51   7 2.51   3 2.71
                             8 2.71  11 3.05
  16  0.449  0.750  0.699-   9 2.16  13 2.16   2 2.30   1 2.30   6 2.31   3 2.51   8 2.51   5 2.71
                             7 2.71  12 3.05

  LATTYP: Found a body centered tetragonal cell.
 ALAT       =     7.6635213388
 C/A-ratio  =     0.8993219871

  Lattice vectors:

 A1 = (   6.1498160764,   0.0000000000,  -1.8491288400)
 A2 = (  -3.3999626799,   5.1244991510,  -1.8491288400)
 A3 = (   0.0000000000,   0.0000000000,   6.4218000000)

Analysis of symmetry for initial positions (statically):
 Subroutine PRICEL returns:
 Original cell was already a primitive cell.

 Routine SETGRP: Setting up the symmetry group for a
 body centered tetragonal supercell.

 Subroutine GETGRP returns: Found 16 space group operations
 (whereof  8 operations were pure point group operations)
 out of a pool of 16 trial point group operations.

The static configuration has the point symmetry C_4h.
 The point group associated with its full space group is D_4h.

Analysis of symmetry for dynamics (positions and initial velocities):
 Subroutine PRICEL returns:
 Original cell was already a primitive cell.

 Routine SETGRP: Setting up the symmetry group for a
 body centered tetragonal supercell.

 Subroutine GETGRP returns: Found 16 space group operations
 (whereof  8 operations were pure point group operations)
 out of a pool of 16 trial point group operations.

The dynamic configuration has the point symmetry C_4h.
 The point group associated with its full space group is D_4h.

 Subroutine INISYM returns: Found 16 space group operations
 (whereof  8 operations are pure point group operations),
 and found     1 'primitive' translations

                                     Primitive cell

  volume of cell :     202.3813

  direct lattice vectors                    reciprocal lattice vectors
     6.149816076  0.000000000 -1.849128840     0.162606489  0.107884884  0.000000000
    -3.399962680  5.124499151 -1.849128840     0.000000000  0.195141022  0.000000000
     0.000000000  0.000000000  6.421800000     0.046821818  0.087254966  0.155719580

  length of vectors
     6.421800000  6.421800000  6.421800000     0.195141022  0.195141022  0.184538070

  position of ions in fractional coordinates (direct lattice)
     1.000000000  0.500000000  0.500000000
     0.500000000  0.000000000  0.500000000
     0.235400000  0.264600000  0.500000000
     0.250000000  0.250000000  0.000000000
     0.764600000  0.735400000  0.500000000
     0.750000000  0.750000000  0.000000000
     0.264600000  0.764600000  0.029200000
     0.735400000  0.235400000  0.970800000
     0.250000000  0.949190000  0.699190000
     0.750000000  0.050810000  0.300810000
     0.949190000  0.250000000  0.699190000
     0.050810000  0.750000000  0.300810000
     0.250000000  0.550810000  0.300810000
     0.750000000  0.449190000  0.699190000
     0.550810000  0.250000000  0.300810000
     0.449190000  0.750000000  0.699190000

  ion indices of the primitive-cell ions
   primitive index   ion index
                 1           1
                 2           2
                 3           3
                 4           4
                 5           5
                 6           6
                 7           7
                 8           8
                 9           9
                10          10
                11          11
                12          12
                13          13
                14          14
                15          15
                16          16

 KPOINTS: EA

Automatic generation of k-mesh.
 Grid dimensions read from file:
 generate k-points for:    7    7    7

 Generating k-lattice:

  Cartesian coordinates                     Fractional coordinates (reciprocal lattice)
     0.023229498  0.015412126  0.000000000     0.142857143 -0.000000000  0.000000000
     0.000000000  0.027877289  0.000000000     0.000000000  0.142857143  0.000000000
     0.006688831  0.012464995  0.022245654     0.000000000  0.000000000  0.142857143

  Length of vectors
     0.027877289  0.027877289  0.026362581

  Shift w.r.t. Gamma in fractional coordinates (k-lattice)
     0.000000000  0.000000000  0.000000000

 Subroutine IBZKPT returns following result:

 Found     40 irreducible k-points:

 Following reciprocal coordinates:
            Coordinates               Weight
  0.000000  0.000000  0.000000      1.000000
  0.142857 -0.000000  0.000000      8.000000
  0.285714  0.000000  0.000000      8.000000
  0.428571  0.000000  0.000000      8.000000
  0.142857  0.142857  0.000000      8.000000
  0.285714  0.142857  0.000000     16.000000
  0.428571  0.142857  0.000000     16.000000
 -0.428571  0.142857  0.000000     16.000000
 -0.285714  0.142857  0.000000     16.000000
 -0.142857  0.142857  0.000000      4.000000
  0.285714  0.285714  0.000000      8.000000
  0.428571  0.285714  0.000000     16.000000
 -0.428571  0.285714  0.000000     16.000000
 -0.285714  0.285714  0.000000      4.000000
  0.428571  0.428571  0.000000      8.000000
 -0.428571  0.428571  0.000000      4.000000
  0.142857  0.142857  0.142857      8.000000
  0.285714  0.142857  0.142857     16.000000
 -0.142857  0.142857  0.142857      4.000000
  0.285714  0.285714  0.142857      8.000000
  0.428571  0.285714  0.142857      8.000000
 -0.285714  0.285714  0.142857      8.000000
 -0.142857  0.285714  0.142857      8.000000
 -0.428571  0.428571  0.142857      8.000000
 -0.285714  0.428571  0.142857     16.000000
 -0.142857  0.428571  0.142857      8.000000
 -0.428571 -0.428571  0.142857      8.000000
 -0.285714 -0.428571  0.142857     16.000000
 -0.142857 -0.428571  0.142857      8.000000
 -0.285714 -0.285714  0.142857      8.000000
 -0.142857 -0.285714  0.142857      8.000000
 -0.142857 -0.142857  0.142857      2.000000
 -0.285714  0.285714  0.285714      4.000000
 -0.428571  0.428571  0.285714      8.000000
 -0.285714  0.428571  0.285714      8.000000
 -0.428571 -0.428571  0.285714      8.000000
 -0.285714 -0.428571  0.285714      8.000000
 -0.285714 -0.285714  0.285714      2.000000
 -0.428571  0.428571  0.428571      4.000000
 -0.428571 -0.428571  0.428571      2.000000

 Following cartesian coordinates:
            Coordinates               Weight
  0.000000  0.000000  0.000000      1.000000
[...]
  -0.06968850  0.00951820  0.00000000       0.047
  -0.04645900  0.02493033  0.00000000       0.012
   0.06968850  0.12986825  0.00000000       0.023
  -0.06968850  0.03739549  0.00000000       0.012
   0.02991833  0.05575441  0.02224565       0.023
   0.05314783  0.07116654  0.02224565       0.047
  -0.01654067  0.02493016  0.02224565       0.012
   0.05314783  0.09904383  0.02224565       0.023
   0.07637733  0.11445595  0.02224565       0.023
  -0.03977017  0.03739532  0.02224565       0.023
  -0.01654067  0.05280745  0.02224565       0.023
  -0.06299966  0.04986048  0.02224565       0.023
  -0.03977017  0.06527261  0.02224565       0.047
  -0.01654067  0.08068474  0.02224565       0.023
  -0.06299966 -0.11740325  0.02224565       0.023
  -0.03977017 -0.10199112  0.02224565       0.047
  -0.01654067 -0.08657900  0.02224565       0.023
  -0.03977017 -0.07411383  0.02224565       0.023
  -0.01654067 -0.05870171  0.02224565       0.023
  -0.01654067 -0.03082442  0.02224565       0.006
  -0.03308133  0.04986032  0.04449131       0.012
  -0.05631083  0.06232548  0.04449131       0.023
  -0.03308133  0.07773760  0.04449131       0.023
  -0.05631083 -0.10493825  0.04449131       0.023
  -0.03308133 -0.08952613  0.04449131       0.023
  -0.03308133 -0.06164884  0.04449131       0.006
  -0.04962200  0.07479047  0.06673696       0.012
  -0.04962200 -0.09247326  0.06673696       0.006

 k-points in reciprocal lattice and weights: EA
   0.00000000  0.00000000  0.00000000       0.003
   0.14285714 -0.00000000  0.00000000       0.023
   0.28571429  0.00000000  0.00000000       0.023
   0.42857143  0.00000000  0.00000000       0.023
   0.14285714  0.14285714  0.00000000       0.023
   0.28571429  0.14285714  0.00000000       0.047
   0.42857143  0.14285714  0.00000000       0.047
  -0.42857143  0.14285714  0.00000000       0.047
  -0.28571429  0.14285714  0.00000000       0.047
  -0.14285714  0.14285714  0.00000000       0.012
   0.28571429  0.28571429  0.00000000       0.023
   0.42857143  0.28571429  0.00000000       0.047
  -0.42857143  0.28571429  0.00000000       0.047
  -0.28571429  0.28571429  0.00000000       0.012
   0.42857143  0.42857143  0.00000000       0.023
  -0.42857143  0.42857143  0.00000000       0.012
   0.14285714  0.14285714  0.14285714       0.023
   0.28571429  0.14285714  0.14285714       0.047
  -0.14285714  0.14285714  0.14285714       0.012
   0.28571429  0.28571429  0.14285714       0.023
   0.42857143  0.28571429  0.14285714       0.023
  -0.28571429  0.28571429  0.14285714       0.023
  -0.14285714  0.28571429  0.14285714       0.023
  -0.42857143  0.42857143  0.14285714       0.023
  -0.28571429  0.42857143  0.14285714       0.047
  -0.14285714  0.42857143  0.14285714       0.023
  -0.42857143 -0.42857143  0.14285714       0.023
  -0.28571429 -0.42857143  0.14285714       0.047
  -0.14285714 -0.42857143  0.14285714       0.023
  -0.28571429 -0.28571429  0.14285714       0.023
  -0.14285714 -0.28571429  0.14285714       0.023
  -0.14285714 -0.14285714  0.14285714       0.006
  -0.28571429  0.28571429  0.28571429       0.012
  -0.42857143  0.42857143  0.28571429       0.023
  -0.28571429  0.42857143  0.28571429       0.023
  -0.42857143 -0.42857143  0.28571429       0.023
  -0.28571429 -0.42857143  0.28571429       0.023
  -0.28571429 -0.28571429  0.28571429       0.006
  -0.42857143  0.42857143  0.42857143       0.012
  -0.42857143 -0.42857143  0.42857143       0.006

 position of ions in fractional coordinates (direct lattice)
   0.00000000  0.50000000  0.50000000
   0.50000000  0.00000000  0.50000000
   0.23540000  0.26460000  0.50000000
   0.25000000  0.25000000  0.00000000
   0.76460000  0.73540000  0.50000000
   0.75000000  0.75000000  0.00000000
   0.26460000  0.76460000  0.02920000
   0.73540000  0.23540000  0.97080000
   0.25000000  0.94919000  0.69919000
   0.75000000  0.05081000  0.30081000
   0.94919000  0.25000000  0.69919000
   0.05081000  0.75000000  0.30081000
   0.25000000  0.55081000  0.30081000
   0.75000000  0.44919000  0.69919000
   0.55081000  0.25000000  0.30081000
   0.44919000  0.75000000  0.69919000

 position of ions in cartesian coordinates  (Angst):
  -1.69998134  2.56224958  2.28633558
   3.07490804  0.00000000  2.28633558
   0.54803658  1.35594248  2.28633558
   0.68746335  1.28112479 -0.92456442
   2.20181682  3.76855668  0.43720674
   2.06239005  3.84337436 -2.77369326
  -0.97237013  3.91819205 -1.71560684
   3.72222353  1.20630710  4.43914916
  -1.68975656  4.86412335  2.27260153
   4.43960995  0.26037580  0.45094079
   4.98735325  1.28112479  2.27260153
  -2.23749986  3.84337436  0.45094079
  -0.33527942  2.82262538  0.45094079
   3.08513282  2.30187377  2.27260153
   2.53738952  1.28112479  0.45094079
   0.21246387  3.84337436  2.27260153

 k-point   1 :   0.0000 0.0000 0.0000  plane waves:    6753
 k-point   2 :   0.1429-0.0000 0.0000  plane waves:    6753
 k-point   3 :   0.2857 0.0000 0.0000  plane waves:    6750
 k-point   4 :   0.4286 0.0000 0.0000  plane waves:    6757
 k-point   5 :   0.1429 0.1429 0.0000  plane waves:    6733
 k-point   6 :   0.2857 0.1429 0.0000  plane waves:    6754
 k-point   7 :   0.4286 0.1429 0.0000  plane waves:    6757
 k-point   8 :  -0.4286 0.1429 0.0000  plane waves:    6752
 k-point   9 :  -0.2857 0.1429 0.0000  plane waves:    6744
 k-point  10 :  -0.1429 0.1429 0.0000  plane waves:    6741
 k-point  11 :   0.2857 0.2857 0.0000  plane waves:    6762
 k-point  12 :   0.4286 0.2857 0.0000  plane waves:    6757
 k-point  13 :  -0.4286 0.2857 0.0000  plane waves:    6742
 k-point  14 :  -0.2857 0.2857 0.0000  plane waves:    6746
 k-point  15 :   0.4286 0.4286 0.0000  plane waves:    6755
 k-point  16 :  -0.4286 0.4286 0.0000  plane waves:    6760
 k-point  17 :   0.1429 0.1429 0.1429  plane waves:    6750
 k-point  18 :   0.2857 0.1429 0.1429  plane waves:    6755
 k-point  19 :  -0.1429 0.1429 0.1429  plane waves:    6759
 k-point  20 :   0.2857 0.2857 0.1429  plane waves:    6757
 k-point  21 :   0.4286 0.2857 0.1429  plane waves:    6762
 k-point  22 :  -0.2857 0.2857 0.1429  plane waves:    6757
 k-point  23 :  -0.1429 0.2857 0.1429  plane waves:    6758
 k-point  24 :  -0.4286 0.4286 0.1429  plane waves:    6748
 k-point  25 :  -0.2857 0.4286 0.1429  plane waves:    6748
 k-point  26 :  -0.1429 0.4286 0.1429  plane waves:    6744
 k-point  27 :  -0.4286-0.4286 0.1429  plane waves:    6743
 k-point  28 :  -0.2857-0.4286 0.1429  plane waves:    6752
 k-point  29 :  -0.1429-0.4286 0.1429  plane waves:    6765
 k-point  30 :  -0.2857-0.2857 0.1429  plane waves:    6761
 k-point  31 :  -0.1429-0.2857 0.1429  plane waves:    6743
 k-point  32 :  -0.1429-0.1429 0.1429  plane waves:    6738
 k-point  33 :  -0.2857 0.2857 0.2857  plane waves:    6753
 k-point  34 :  -0.4286 0.4286 0.2857  plane waves:    6759
 k-point  35 :  -0.2857 0.4286 0.2857  plane waves:    6761
 k-point  36 :  -0.4286-0.4286 0.2857  plane waves:    6790
 k-point  37 :  -0.2857-0.4286 0.2857  plane waves:    6767
 k-point  38 :  -0.2857-0.2857 0.2857  plane waves:    6760
 k-point  39 :  -0.4286 0.4286 0.4286  plane waves:    6782
 k-point  40 :  -0.4286-0.4286 0.4286  plane waves:    6782

 maximum and minimum number of plane-waves per node :      3403     3350

 maximum number of plane-waves:      6790
 maximum index in each direction:
   IXMAX=   13   IYMAX=   13   IZMAX=   12
   IXMIN=  -13   IYMIN=  -13   IZMIN=  -13

 parallel 3D FFT for wavefunctions:
    minimum data exchange during FFTs selected (reduces bandwidth)
 parallel 3D FFT for charge:
    minimum data exchange during FFTs selected (reduces bandwidth)

 Broyden mixing: mesh for mixing (old mesh)
   NGX = 25   NGY = 25   NGZ = 25
  (NGX  =108   NGY  =108   NGZ  =108)
  gives a total of  15625 points

 initial charge density was supplied:
 charge density of overlapping atoms calculated
 number of electron     122.0000000 magnetization
 keeping initial charge density in first step

 Maximum index for augmentation-charges        22080 (set IRDMAX)

 First call to EWALD:  gamma=   0.302
 Maximum number of real-space cells 3x 3x 3
 Maximum number of reciprocal cells 3x 3x 3

--------------------------------------- Iteration      1(   1)  ---------------------------------------

 eigenvalue-minimisations  :  6408
 total energy-change (2. order) : 0.1116717E+04  (-0.8012515E+04)
 number of electron     122.0000000 magnetization
 augmentation part      122.0000000 magnetization

 Free energy of the ion-electron system (eV)
  alpha Z        PSCENC =       544.34217070
  Ewald energy   TEWEN  =    -10132.41382910
  -Hartree energ DENC   =     -2532.06534555
  -exchange      EXHF   =         0.00000000
  -V(xc)+E(xc)   XCENC  =       447.64778796
  PAW double counting   =      9666.54758295    -9560.21215315
  entropy T*S    EENTRO =        -0.00148686
  eigenvalues    EBANDS =       542.30518863
  atomic energy  EATOM  =     12140.56680252
  free energy    TOTEN  =      1116.71671809 eV

  energy without entropy =     1116.71820495  energy(sigma->0) =     1116.71746152

[...]

 eigenvalue-minimisations  :  6960
 total energy-change (2. order) :-0.1330201E+04  (-0.1288627E+04)
 number of electron     122.0000000 magnetization
 augmentation part      122.0000000 magnetization

[...]

 eigenvalue-minimisations  :     0
 total energy-change (2. order) : 0.1375156E-08  (-0.1078682E-08)
 number of electron     122.0000008 magnetization
 augmentation part       13.0626062 magnetization

[...]

--------------------------------------- Iteration      1(  36)  ---------------------------------------

 eigenvalue-minimisations  :     0
 total energy-change (2. order) :-0.3801688E-09  (-0.7256603E-09)
 number of electron     122.0000008 magnetization
 augmentation part       13.0626063 magnetization

 Free energy of the ion-electron system (eV)
  alpha Z        PSCENC =       544.34217070
  Ewald energy   TEWEN  =    -10132.41382910
  -Hartree energ DENC   =     -2389.81609455
  -exchange      EXHF   =         0.00000000
  -V(xc)+E(xc)   XCENC  =       460.22439328
  PAW double counting   =     20273.44450611   -20182.72231345
  entropy T*S    EENTRO =        -0.00304860
  eigenvalues    EBANDS =      -942.68308380
  atomic energy  EATOM  =     12140.56680252
  free energy    TOTEN  =      -229.06049690 eV

  energy without entropy =     -229.05744829  energy(sigma->0) =     -229.05897259

  average scaling for gradient   1.7498

 average (electrostatic) potential at core
  the test charge radii are     0.7672  1.0818  0.9892
  (the norm of the test charge is              1.0000)
       1 -23.4897       2 -23.4897       3 -74.6380       4 -73.7543       5 -74.6380
       6 -73.7543       7 -74.6380       8 -74.6380       9 -80.4096      10 -80.4096
      11 -80.4096      12 -80.4096      13 -80.4096      14 -80.4096      15 -80.4096
      16 -80.4096

 E-fermi :  12.2512     XC(G=0): -13.5305     alpha+bet :-19.8408

 Fermi energy:        12.2512221865

 k-point     1 :       0.0000    0.0000    0.0000
  band No.  band energies     occupation
      1     -50.7121      2.00000
      2     -50.7076      2.00000
      3     -50.7018      2.00000
      4     -50.7018      2.00000
      5     -49.8936      2.00000
      6     -49.8880      2.00000
      7     -24.4847      2.00000
      8     -24.4847      2.00000
      9     -24.3407      2.00000
     10     -24.3303      2.00000
     11     -24.1776      2.00000
     12     -24.1775      2.00000
     13     -24.1773      2.00000
     14     -24.1276      2.00000
     15     -24.0204      2.00000
     16     -24.0204      2.00000
     17     -24.0038      2.00000
     18     -23.9294      2.00000
     19     -23.5177      2.00000
     20     -23.5177      2.00000
     21     -23.4831      2.00000
     22     -23.4830      2.00000
     23     -23.2126      2.00000
     24     -23.1410      2.00000
     25      -3.8533      2.00000
     26      -2.0098      2.00000
     27       1.5445      2.00000
     28       2.2123      2.00000
     29       2.2123      2.00000
     30       2.9855      2.00000
     31       2.9855      2.00000
     32       3.3195      2.00000
     33       3.7692      2.00000
     34       3.8090      2.00000
     35       4.7192      2.00000
     36       4.7548      2.00000
     37       4.7548      2.00000
     38       5.9909      2.00000
     39       6.5448      2.00000
     40       7.0095      2.00000
     41       7.5186      2.00000
     42       7.6354      2.00000
     43       8.4540      2.00000
     44       8.4540      2.00000
     45       8.8633      2.00000
     46       8.8633      2.00000
     47       9.4493      2.00000
     48       9.4493      2.00000
     49       9.6597      2.00000
     50      10.0149      2.00000
     51      10.2052      2.00000
     52      10.3898      2.00000
     53      10.3899      2.00000
     54      10.9608      2.00000
     55      11.2363      2.00000
     56      11.6505      2.00000
     57      11.8066      2.00000
     58      11.8254      2.00000
     59      11.8772      2.00000
     60      11.8773      2.00000
[...]
     64      12.4132      0.00000
     65      13.4434      0.00000
     66      13.8081      0.00000
     67      13.8081      0.00000
     68      14.0647      0.00000
     69      14.0647      0.00000
     70      14.1899      0.00000
     71      14.2180      0.00000
     72      14.3657      0.00000
     73      14.7498      0.00000
     74      14.7498      0.00000
     75      15.4716      0.00000
     76      15.4717      0.00000
     77      15.5173      0.00000
     78      15.8767      0.00000

[...]

 k-point    40 :      -0.4286   -0.4286    0.4286
  band No.  band energies     occupation
      1     -50.7091      2.00000
      2     -50.7091      2.00000
      3     -50.7038      2.00000
      4     -50.7006      2.00000
      5     -49.8942      2.00000
      6     -49.8883      2.00000
      7     -24.4674      2.00000
      8     -24.4517      2.00000
      9     -24.3412      2.00000
     10     -24.3412      2.00000
     11     -24.1998      2.00000
     12     -24.1548      2.00000
     13     -24.1548      2.00000
     14     -24.1412      2.00000
     15     -23.9876      2.00000
     16     -23.9529      2.00000
     17     -23.9529      2.00000
     18     -23.9420      2.00000
     19     -23.5488      2.00000
     20     -23.5487      2.00000
     21     -23.5360      2.00000
     22     -23.5360      2.00000
     23     -23.2443      2.00000
     24     -23.1499      2.00000
     25      -3.0865      2.00000
     26      -2.0736      2.00000
     27       0.5920      2.00000
     28       0.5920      2.00000
     29       0.9858      2.00000
     30       2.5773      2.00000
     31       2.5774      2.00000
     32       3.9985      2.00000
     33       5.1117      2.00000
     34       5.4080      2.00000
     35       5.8128      2.00000
     36       6.3505      2.00000
     37       6.5500      2.00000
     38       6.5500      2.00000
     39       6.5708      2.00000
     40       7.2836      2.00000
     41       7.2836      2.00000
     42       7.6611      2.00000
     43       7.6611      2.00000
     44       8.0491      2.00000
     45       8.2804      2.00000
     46       8.6382      2.00000
     47       8.6382      2.00000
     48       8.8567      2.00000
     49       9.3108      2.00000
     50       9.8136      2.00000
     51      10.6293      2.00000
     52      10.6293      2.00000
     53      10.6446      2.00000
     54      10.7371      2.00000
     55      10.8554      2.00000
     56      10.9972      2.00000
     57      10.9972      2.00000
     58      11.2786      2.00000
     59      11.9612      2.00000
     60      12.0832      2.00000
[...]
     64      12.3970      0.00000
     65      12.7766      0.00000
     66      13.3432      0.00000
     67      13.5613      0.00000
     68      13.5613      0.00000
     69      13.7574      0.00000
     70      14.0825      0.00000
     71      14.1744      0.00000
     72      14.3478      0.00000
     73      14.3479      0.00000
     74      14.3804      0.00000
     75      15.2018      0.00000
     76      15.2111      0.00000
     77      16.0482      0.00000
     78      16.0887      0.00000

 soft charge-density along one line, spin component           1
         0         1         2         3         4         5         6         7         8         9
 total charge-density along one line

------------------------ aborting loop because EDIFF is reached ----------------------------------------

  FREE ENERGIE OF THE ION-ELECTRON SYSTEM (eV)
  free  energy   TOTEN  =      -229.06049690 eV

  energy  without entropy=     -229.05744829  energy(sigma->0) =     -229.05897259

 writing wavefunctions