 vasp.6.2.0 18Jan21 (build Jan 05 2022 15:41:44) complex

 executed on             LinuxIFC date 2025.05.07  17:30:41

 INCAR:
   SYSTEM = routine with relax: pwdword
   ICHARG = 2
   NPAR = 6
   KPAR = 2
   NCORE = 2
   ADDGRID = T
   PREC = Acc
   ENCUT = 600
   METAGGA = R2SCAN
   LASPH = .TRUE.
   LMIXTAU = .FALSE.
   ALGO = A
   EDIFF = 1E-9
   NELM = 100
   NELMIN = 6
   IALGO = 38
   LREAL = F
   NSW = 0
   ISIF = -1
   ISMEAR = 0
   SIGMA = 0.02
   SYMPREC = 1E-4

 POTCAR:    PAW_PBE B 06Sep2000
 POTCAR:    PAW_PBE Mo_sv 02Feb2006
 POTCAR:    PAW_PBE Si 05Jan2001
|           W    W    AA    RRRRR   N    N  II  N    N   GGGG   !!!           |
|           W    W   A  A   R    R  NN   N  II  NN   N  G    G  !!!           |
|           W    W  A    A  R    R  N N  N  II  N N  N  G       !!!           |
|           W WW W  AAAAAA  RRRRR   N  N N  II  N  N N  G  GGG   !            |
|           WW  WW  A    A  R   R   N   NN  II  N   NN  G    G                |
|           W    W  A    A  R    R  N    N  II  N    N   GGGG   !!!           |
|     For optimal performance we recommend to set                             |
|       NCORE = 2 up to number-of-cores-per-socket                            |
|     This setting can greatly improve the performance of VASP for DFT.       |
|     The default, NCORE=1 might be grossly inefficient on modern             |
|     multi-core architectures or massively parallel machines. Do your        |
|     Unfortunately you need to use the default for GW and RPA                |
|     calculations (for HF NCORE is supported but not extensively tested      |
|     yet).                                                                   |

 POTCAR:    PAW_PBE B 06Sep2000
   VRHFIN =B: s2p1

   TITEL  = PAW_PBE B 06Sep2000
   POMASS =   10.811; ZVAL   =    3.000    mass and valenz
   ENMAX  =  318.614; ENMIN  =  238.960 eV

 POTCAR:    PAW_PBE Mo_sv 02Feb2006
   VRHFIN =Mo: 4p5s4d

   TITEL  = PAW_PBE Mo_sv 02Feb2006
   POMASS =   95.940; ZVAL   =   14.000    mass and valenz
   ENMAX  =  242.676; ENMIN  =  182.007 eV

 POTCAR:    PAW_PBE Si 05Jan2001
   VRHFIN =Si: s2p2

   TITEL  = PAW_PBE Si 05Jan2001
   POMASS =   28.085; ZVAL   =    4.000    mass and valenz
   ENMAX  =  245.345; ENMIN  =  184.009 eV

  PAW_PBE B 06Sep2000                   :
  PAW_PBE Mo_sv 02Feb2006               :
  PAW_PBE Si 05Jan2001                  :

 POSCAR: EA98
  positions in direct lattice

 METAGGA = R2SCA    LMAXTAU =  6    LMIXTAU =  F

 ion  position               nearest neighbor table
   1  0.229  0.729  0.959-  10 2.09   8 2.09   7 2.37  13 2.37
   2  0.771  0.271  0.041-  12 2.09   9 2.09   5 2.37  14 2.37
   3  0.729  0.771  0.500-   7 2.09  14 2.09  10 2.37   9 2.37
   4  0.271  0.229  0.500-   5 2.09  13 2.09  12 2.37   8 2.37
   5  0.504  0.260  0.764-   4 2.09  11 2.13  15 2.31   2 2.37   9 3.01   8 3.01  14 3.22  13 3.31

   6  0.000  0.000  0.000-  13 2.13  14 2.13  10 2.13  12 2.13
   7  0.496  0.740  0.236-   3 2.09  11 2.13  15 2.31   1 2.37   8 3.01   9 3.01  13 3.22  14 3.31

[...]

  15  0.500  0.000  0.500-   5 2.31   7 2.31  13 2.31  14 2.31
  16  0.000  0.500  0.500-   8 2.31   9 2.31  10 2.31  12 2.31

  LATTYP: Found a body centered tetragonal cell.
 ALAT       =     8.8752944112
 C/A-ratio  =     0.8623529646

  Lattice vectors:

 A1 = (   7.0753334749,   0.0000000000,  -1.9922513496)
 A2 = (  -4.0576743596,   5.7961730971,  -1.9922513496)
 A3 = (   0.0000000000,   0.0000000000,   7.3504700000)

Analysis of symmetry for initial positions (statically):
 Subroutine PRICEL returns:
 Original cell was already a primitive cell.

 Routine SETGRP: Setting up the symmetry group for a
 body centered tetragonal supercell.

 Subroutine GETGRP returns: Found 16 space group operations
 (whereof  8 operations were pure point group operations)
 out of a pool of 16 trial point group operations.

The static configuration has the point symmetry C_4h.
 The point group associated with its full space group is D_4h.

Analysis of symmetry for dynamics (positions and initial velocities):
 Subroutine PRICEL returns:
 Original cell was already a primitive cell.

 Routine SETGRP: Setting up the symmetry group for a
 body centered tetragonal supercell.

 Subroutine GETGRP returns: Found 16 space group operations
 (whereof  8 operations were pure point group operations)
 out of a pool of 16 trial point group operations.

The dynamic configuration has the point symmetry C_4h.
 The point group associated with its full space group is D_4h.

 Subroutine INISYM returns: Found 16 space group operations
 (whereof  8 operations are pure point group operations),
 and found     1 'primitive' translations

                                     Primitive cell

  volume of cell :     301.4417

  direct lattice vectors                    reciprocal lattice vectors
     7.075333475  0.000000000 -1.992251350     0.141336094  0.098943878  0.000000000
    -4.057674360  5.796173097 -1.992251350     0.000000000  0.172527629  0.000000000
     0.000000000  0.000000000  7.350470000     0.038307350  0.073578897  0.136045722

  length of vectors
     7.350470000  7.350470000  7.350470000     0.172527629  0.172527629  0.159341601

  position of ions in fractional coordinates (direct lattice)
     0.229390000  0.729390000  0.958780000
     0.770610000  0.270610000  0.041220000
     0.729390000  0.770610000  0.500000000
     0.270610000  0.229390000  0.500000000
     0.503780000  0.260170000  0.763960000
     0.000000000  0.000000000  0.000000000
     0.496220000  0.739830000  0.236040000
     0.260170000  0.496220000  0.756390000
     0.739830000  0.503780000  0.243610000
     0.996220000  0.760170000  0.756390000
     0.500000000  0.500000000  0.000000000
     0.003780000  0.239830000  0.243610000
     0.239830000  0.996220000  0.236040000
     0.760170000  0.003780000  0.763960000
     0.500000000  0.000000000  0.500000000
     0.000000000  0.500000000  0.500000000

  ion indices of the primitive-cell ions
   primitive index   ion index
                 1           1
                 2           2
                 3           3
                 4           4
                 5           5
                 6           6
                 7           7
                 8           8
                 9           9
                10          10
                11          11
                12          12
                13          13
                14          14
                15          15
                16          16

 KPOINTS: EA

Automatic generation of k-mesh.
 Grid dimensions read from file:
 generate k-points for:    6    6    6

 Generating k-lattice:

  Cartesian coordinates                     Fractional coordinates (reciprocal lattice)
     0.023556016  0.016490646  0.000000000     0.166666667  0.000000000  0.000000000
     0.000000000  0.028754605  0.000000000     0.000000000  0.166666667  0.000000000
     0.006384558  0.012263150  0.022674287     0.000000000  0.000000000  0.166666667

  Length of vectors
     0.028754605  0.028754605  0.026556933

  Shift w.r.t. Gamma in fractional coordinates (k-lattice)
     0.000000000  0.000000000  0.000000000

 Subroutine IBZKPT returns following result:

 Found     30 irreducible k-points:

 Following reciprocal coordinates:
            Coordinates               Weight
  0.000000  0.000000  0.000000      1.000000
  0.166667 -0.000000  0.000000      8.000000
  0.333333  0.000000  0.000000      8.000000
  0.500000  0.000000  0.000000      4.000000
  0.166667  0.166667  0.000000      8.000000
  0.333333  0.166667  0.000000     16.000000
  0.500000  0.166667  0.000000     16.000000
 -0.333333  0.166667  0.000000     16.000000
 -0.166667  0.166667  0.000000      4.000000
  0.333333  0.333333  0.000000      8.000000
  0.500000  0.333333  0.000000     16.000000
 -0.333333  0.333333  0.000000      4.000000
  0.500000  0.500000  0.000000      2.000000
  0.166667  0.166667  0.166667      8.000000
  0.333333  0.166667  0.166667      8.000000
 -0.166667  0.166667  0.166667      4.000000
  0.333333  0.333333  0.166667      4.000000
 -0.333333  0.333333  0.166667      8.000000
 -0.166667  0.333333  0.166667      8.000000
  0.500000  0.500000  0.166667      4.000000
 -0.333333  0.500000  0.166667     16.000000
 -0.166667  0.500000  0.166667      8.000000
 -0.333333 -0.333333  0.166667      8.000000
 -0.166667 -0.333333  0.166667      8.000000
 -0.166667 -0.166667  0.166667      2.000000
 -0.333333  0.333333  0.333333      4.000000
  0.500000  0.500000  0.333333      4.000000
 -0.333333  0.500000  0.333333      8.000000
 -0.333333 -0.333333  0.333333      2.000000
  0.500000  0.500000  0.500000      1.000000

 Following cartesian coordinates:
            Coordinates               Weight
  0.000000  0.000000  0.000000      1.000000
  0.023556  0.016491  0.000000      8.000000
  0.047112  0.032981  0.000000      8.000000
  0.070668  0.049472  0.000000      4.000000
  0.023556  0.045245  0.000000      8.000000
  0.047112  0.061736  0.000000     16.000000
  0.070668  0.078227  0.000000     16.000000
 -0.047112 -0.004227  0.000000     16.000000
 -0.023556  0.012264  0.000000      4.000000
  0.047112  0.090491  0.000000      8.000000
  0.070668  0.106981  0.000000     16.000000
 -0.047112  0.024528  0.000000      4.000000
  0.070668  0.135736  0.000000      2.000000
  0.029941  0.057508  0.022674      8.000000
  0.053497  0.073999  0.022674      8.000000
 -0.017171  0.024527  0.022674      4.000000
  0.053497  0.102754  0.022674      4.000000
 -0.040727  0.036791  0.022674      8.000000
 -0.017171  0.053282  0.022674      8.000000
  0.077053  0.147999  0.022674      4.000000
 -0.040727  0.065546  0.022674     16.000000
 -0.017171  0.082036  0.022674      8.000000
 -0.040727 -0.078227  0.022674      8.000000
 -0.017171 -0.061737  0.022674      8.000000
 -0.017171 -0.032982  0.022674      2.000000
 -0.034343  0.049054  0.045349      4.000000
  0.083437  0.160262  0.045349      4.000000
 -0.034343  0.077809  0.045349      8.000000
 -0.034343 -0.065964  0.045349      2.000000
  0.089822  0.172525  0.068023      1.000000

 SYSTEM =  routine with relax: pwdword
 POSCAR =  EA98

 Startparameter for this run:
   NWRITE =      2    write-flag & timer
   PREC   = acc       normal or accurate (medium, high low for compatibility)
   ISTART =      0    job   : 0-new  1-cont  2-samecut
   ICHARG =      2    charge: 1-file 2-atom 10-const
   ISPIN  =      1    spin polarized calculation?
   LNONCOLLINEAR =      F non collinear calculations
   LSORBIT =      F    spin-orbit coupling
   INIWAV =      1    electr: 0-lowe 1-rand  2-diag
   LASPH  =      T    aspherical Exc in radial PAW
   METAGGA=      F    non-selfconsistent MetaGGA calc.

 Electronic Relaxation 1
   ENCUT  =  600.0 eV  44.10 Ry    6.64 a.u.  14.68 14.68 14.68*2*pi/ulx,y,z
   ENINI  =  600.0     initial cutoff
   ENAUG  =  535.5 eV  augmentation charge cutoff
   NELM   =    100;   NELMIN=  6; NELMDL= -5     # of ELM steps
   EDIFF  = 0.1E-08   stopping-criterion for ELM
   LREAL  =      F    real-space projection
   NLSPLINE    = F    spline interpolate recip. space projectors
[...]
 using additional bands           16
 reciprocal scheme for non local part
 use partial core corrections
 no Harris-corrections to forces
 use gradient corrections
 use of overlap-Matrix (Vanderbilt PP)
 Gauss-broadening in eV      SIGMA  =   0.02

  energy-cutoff  :      600.00
  volume of cell :      301.44
      direct lattice vectors                 reciprocal lattice vectors
     7.075333475  0.000000000 -1.992251350     0.141336094  0.098943878  0.000000000
    -4.057674360  5.796173097 -1.992251350     0.000000000  0.172527629  0.000000000
     0.000000000  0.000000000  7.350470000     0.038307350  0.073578897  0.136045722

  length of vectors
     7.350470000  7.350470000  7.350470000     0.172527629  0.172527629  0.159341601

 k-points in units of 2pi/SCALE and weight: EA
   0.00000000  0.00000000  0.00000000       0.005
   0.02355602  0.01649065  0.00000000       0.037
   0.04711203  0.03298129  0.00000000       0.037
   0.07066805  0.04947194  0.00000000       0.019
   0.02355602  0.04524525  0.00000000       0.037
   0.04711203  0.06173590  0.00000000       0.074
   0.07066805  0.07822654  0.00000000       0.074
  -0.04711203 -0.00422669  0.00000000       0.074
  -0.02355602  0.01226396  0.00000000       0.019
   0.04711203  0.09049050  0.00000000       0.037
   0.07066805  0.10698115  0.00000000       0.074
  -0.04711203  0.02452792  0.00000000       0.019
   0.07066805  0.13573575  0.00000000       0.009
   0.02994057  0.05750840  0.02267429       0.037
   0.05349659  0.07399905  0.02267429       0.037
  -0.01717146  0.02452711  0.02267429       0.019
   0.05349659  0.10275365  0.02267429       0.019
  -0.04072747  0.03679107  0.02267429       0.037
  -0.01717146  0.05328171  0.02267429       0.037
   0.07705261  0.14799890  0.02267429       0.019
  -0.04072747  0.06554567  0.02267429       0.074
  -0.01717146  0.08203632  0.02267429       0.037
  -0.04072747 -0.07822735  0.02267429       0.037
  -0.01717146 -0.06173671  0.02267429       0.037
  -0.01717146 -0.03298210  0.02267429       0.009
  -0.03434291  0.04905422  0.04534857       0.019
   0.08343716  0.16026205  0.04534857       0.019
  -0.03434291  0.07780882  0.04534857       0.037
  -0.03434291 -0.06596420  0.04534857       0.009
   0.08982172  0.17252520  0.06802286       0.005

 k-points in reciprocal lattice and weights: EA
   0.00000000  0.00000000  0.00000000       0.005
   0.16666667 -0.00000000  0.00000000       0.037
   0.33333333  0.00000000  0.00000000       0.037
   0.50000000  0.00000000  0.00000000       0.019
   0.16666667  0.16666667  0.00000000       0.037
   0.33333333  0.16666667  0.00000000       0.074
   0.50000000  0.16666667  0.00000000       0.074
  -0.33333333  0.16666667  0.00000000       0.074
  -0.16666667  0.16666667  0.00000000       0.019
   0.33333333  0.33333333  0.00000000       0.037
   0.50000000  0.33333333  0.00000000       0.074
  -0.33333333  0.33333333  0.00000000       0.019
   0.50000000  0.50000000  0.00000000       0.009
   0.16666667  0.16666667  0.16666667       0.037
   0.33333333  0.16666667  0.16666667       0.037
  -0.16666667  0.16666667  0.16666667       0.019
   0.33333333  0.33333333  0.16666667       0.019
  -0.33333333  0.33333333  0.16666667       0.037
  -0.16666667  0.33333333  0.16666667       0.037
   0.50000000  0.50000000  0.16666667       0.019
  -0.33333333  0.50000000  0.16666667       0.074
  -0.16666667  0.50000000  0.16666667       0.037
  -0.33333333 -0.33333333  0.16666667       0.037
  -0.16666667 -0.33333333  0.16666667       0.037
  -0.16666667 -0.16666667  0.16666667       0.009
  -0.33333333  0.33333333  0.33333333       0.019
   0.50000000  0.50000000  0.33333333       0.019
  -0.33333333  0.50000000  0.33333333       0.037
  -0.33333333 -0.33333333  0.33333333       0.009
   0.50000000  0.50000000  0.50000000       0.005

 position of ions in fractional coordinates (direct lattice)
   0.22939000  0.72939000  0.95878000
   0.77061000  0.27061000  0.04122000
   0.72939000  0.77061000  0.50000000
   0.27061000  0.22939000  0.50000000
   0.50378000  0.26017000  0.76396000
   0.00000000  0.00000000  0.00000000
   0.49622000  0.73983000  0.23604000
   0.26017000  0.49622000  0.75639000
   0.73983000  0.50378000  0.24361000
   0.99622000  0.76017000  0.75639000
   0.50000000  0.50000000  0.00000000
   0.00378000  0.23983000  0.24361000
   0.23983000  0.99622000  0.23604000
   0.76017000  0.00378000  0.76396000
   0.50000000  0.00000000  0.50000000
   0.00000000  0.50000000  0.50000000

 position of ions in cartesian coordinates  (Angst):
  -1.33661636  4.22767070  5.13735288
   4.35427547  1.56850240 -1.77138558
   2.03379304  4.46658895  0.68685798
   0.98386607  1.32958415  2.67910933
   2.50872636  1.50799035  4.09348464
   0.00000000  0.00000000  0.00000000
   0.50893276  4.28818274 -0.72751734
  -0.17270966  2.87617701  4.05290300
   3.19036878  2.91999608 -0.68693570
   3.96406640  4.40607690  2.06065166
   1.50882956  2.89808655 -1.99225135
  -0.94640728  1.39009619  1.30531565
  -2.34545912  5.77426356 -0.72751734
   5.36311824  0.02190953  4.09348464
   3.53766674  0.00000000  2.67910933
  -2.02883718  2.89808655  2.67910933

 k-point   1 :   0.0000 0.0000 0.0000  plane waves:   10087
 k-point   2 :   0.1667-0.0000 0.0000  plane waves:   10070
 k-point   3 :   0.3333 0.0000 0.0000  plane waves:   10069
 k-point   4 :   0.5000 0.0000 0.0000  plane waves:   10078
 k-point   5 :   0.1667 0.1667 0.0000  plane waves:   10072
 k-point   6 :   0.3333 0.1667 0.0000  plane waves:   10062
 k-point   7 :   0.5000 0.1667 0.0000  plane waves:   10064
 k-point   8 :  -0.3333 0.1667 0.0000  plane waves:   10067
 k-point   9 :  -0.1667 0.1667 0.0000  plane waves:   10081
 k-point  10 :   0.3333 0.3333 0.0000  plane waves:   10047
 k-point  11 :   0.5000 0.3333 0.0000  plane waves:   10054
 k-point  12 :  -0.3333 0.3333 0.0000  plane waves:   10069
 k-point  13 :   0.5000 0.5000 0.0000  plane waves:   10058
 k-point  14 :   0.1667 0.1667 0.1667  plane waves:   10071
 k-point  15 :   0.3333 0.1667 0.1667  plane waves:   10058
 k-point  16 :  -0.1667 0.1667 0.1667  plane waves:   10058
 k-point  17 :   0.3333 0.3333 0.1667  plane waves:   10054
 k-point  18 :  -0.3333 0.3333 0.1667  plane waves:   10064
 k-point  19 :  -0.1667 0.3333 0.1667  plane waves:   10070
 k-point  20 :   0.5000 0.5000 0.1667  plane waves:   10054
 k-point  21 :  -0.3333 0.5000 0.1667  plane waves:   10046
 k-point  22 :  -0.1667 0.5000 0.1667  plane waves:   10058
 k-point  23 :  -0.3333-0.3333 0.1667  plane waves:   10049
 k-point  24 :  -0.1667-0.3333 0.1667  plane waves:   10067
 k-point  25 :  -0.1667-0.1667 0.1667  plane waves:   10067
 k-point  26 :  -0.3333 0.3333 0.3333  plane waves:   10052
 k-point  27 :   0.5000 0.5000 0.3333  plane waves:   10070
 k-point  28 :  -0.3333 0.5000 0.3333  plane waves:   10061
 k-point  29 :  -0.3333-0.3333 0.3333  plane waves:   10031
 k-point  30 :   0.5000 0.5000 0.5000  plane waves:   10068

 maximum and minimum number of plane-waves per node :      5060     4995

 maximum number of plane-waves:     10087
 maximum index in each direction:
   IXMAX=   15   IYMAX=   15   IZMAX=   14
   IXMIN=  -15   IYMIN=  -15   IZMIN=  -15

 parallel 3D FFT for wavefunctions:
    minimum data exchange during FFTs selected (reduces bandwidth)
 parallel 3D FFT for charge:
    minimum data exchange during FFTs selected (reduces bandwidth)

 Broyden mixing: mesh for mixing (old mesh)
   NGX = 29   NGY = 29   NGZ = 29
  (NGX  =120   NGY  =120   NGZ  =120)
  gives a total of  24389 points

 initial charge density was supplied:
 charge density of overlapping atoms calculated
 number of electron     160.0000000 magnetization
 keeping initial charge density in first step

 Maximum index for augmentation-charges        20355 (set IRDMAX)

 First call to EWALD:  gamma=   0.264
 Maximum number of real-space cells 3x 3x 3
 Maximum number of reciprocal cells 3x 3x 3

--------------------------------------- Iteration      1(   1)  ---------------------------------------

 eigenvalue-minimisations  :  6120
 total energy-change (2. order) : 0.1827940E+04  (-0.1076139E+05)
 number of electron     160.0000000 magnetization
 augmentation part      160.0000000 magnetization

 Free energy of the ion-electron system (eV)
  alpha Z        PSCENC =       756.30705700
  Ewald energy   TEWEN  =    -12351.37073591
  -Hartree energ DENC   =     -6061.32642394
  -exchange      EXHF   =         0.00000000
  -V(xc)+E(xc)   XCENC  =       784.26078958
  PAW double counting   =     15195.10980530   -15141.88575711
  entropy T*S    EENTRO =        -0.00144525
  eigenvalues    EBANDS =      -466.78999345
  atomic energy  EATOM  =     19113.63672979
  free energy    TOTEN  =      1827.94002601 eV

  energy without entropy =     1827.94147126  energy(sigma->0) =     1827.94074864

[...]

 eigenvalue-minimisations  :  6228
 total energy-change (2. order) :-0.2073350E+04  (-0.2024994E+04)
 number of electron     160.0000000 magnetization
 augmentation part      160.0000000 magnetization

[...]

 eigenvalue-minimisations  :     0
 total energy-change (2. order) :-0.3692548E-07  ( 0.8004272E-08)
 number of electron     159.9999982 magnetization
 augmentation part       24.3172541 magnetization

[...]

 eigenvalue-minimisations  :     0
 total energy-change (2. order) :-0.5227776E-08  (-0.3647847E-09)
 number of electron     159.9999982 magnetization
 augmentation part       24.3172443 magnetization

[...]

--------------------------------------- Iteration      1(  38)  ---------------------------------------

 eigenvalue-minimisations  :     0
 total energy-change (2. order) : 0.5129550E-09  (-0.1630305E-09)
 number of electron     159.9999982 magnetization
 augmentation part       24.3172441 magnetization

 Free energy of the ion-electron system (eV)
  alpha Z        PSCENC =       756.30705700
  Ewald energy   TEWEN  =    -12351.37073591
  -Hartree energ DENC   =     -5968.52924400
  -exchange      EXHF   =         0.00000000
  -V(xc)+E(xc)   XCENC  =       804.11736549
  PAW double counting   =     22239.22915407   -22209.57548559
  entropy T*S    EENTRO =        -0.00329804
  eigenvalues    EBANDS =     -2657.23562344
  atomic energy  EATOM  =     19113.63672979
  free energy    TOTEN  =      -273.42408063 eV

  energy without entropy =     -273.42078259  energy(sigma->0) =     -273.42243161

  average scaling for gradient   1.0091

 average (electrostatic) potential at core
  the test charge radii are     0.7672  1.0818  0.9892
  (the norm of the test charge is              1.0000)
       1 -27.2252       2 -27.2252       3 -27.2190       4 -27.2190       5 -79.9343
       6 -80.1208       7 -79.9343       8 -79.9354       9 -79.9354      10 -79.9354
      11 -80.1208      12 -79.9354      13 -79.9343      14 -79.9343      15 -85.4268
      16 -85.4312

 E-fermi :   6.7025     XC(G=0): -11.3623     alpha+bet :-13.4291

 Fermi energy:         6.7025366460

 k-point     1 :       0.0000    0.0000    0.0000
  band No.  band energies     occupation
      1     -57.1129      2.00000
      2     -57.1068      2.00000
      3     -56.1154      2.00000
      4     -56.1146      2.00000
      5     -56.1130      2.00000
      6     -56.1121      2.00000
      7     -56.0814      2.00000
      8     -56.0663      2.00000
      9     -55.5670      2.00000
     10     -55.5543      2.00000
     11     -32.4544      2.00000
     12     -32.4542      2.00000
     13     -32.4401      2.00000
     14     -32.4398      2.00000
     15     -30.0041      2.00000
     16     -29.9964      2.00000
     17     -29.9765      2.00000
     18     -29.9722      2.00000
     19     -29.8623      2.00000
     20     -29.8336      2.00000
     21     -29.7788      2.00000
     22     -29.6489      2.00000
     23     -29.5558      2.00000
     24     -29.5557      2.00000
     25     -29.5256      2.00000
     26     -29.5255      2.00000
     27     -29.4799      2.00000
     28     -29.3752      2.00000
     29     -29.3751      2.00000
     30     -29.3551      2.00000
     31     -29.3534      2.00000
     32     -29.3465      2.00000
     33     -29.3464      2.00000
     34     -29.3090      2.00000
     35     -28.9664      2.00000
     36     -28.9579      2.00000
     37     -27.7504      2.00000
     38     -27.7499      2.00000
     39     -27.7263      2.00000
     40     -27.7257      2.00000
     41      -2.9200      2.00000
     42      -2.0148      2.00000
     43      -1.3169      2.00000
     44      -0.5196      2.00000
     45      -0.5148      2.00000
     46       0.3138      2.00000
     47       0.6843      2.00000
     48       0.8543      2.00000
     49       1.3585      2.00000
     50       1.3593      2.00000
     51       2.1131      2.00000
     52       2.2488      2.00000
     53       2.2498      2.00000
     54       2.3780      2.00000
     55       2.9483      2.00000
     56       2.9501      2.00000
     57       2.9564      2.00000
     58       2.9568      2.00000
     59       2.9847      2.00000
     60       3.2158      2.00000
[...]
     82       7.2000      0.00000
     83       7.2156      0.00000
     84       7.2158      0.00000
     85       7.2471      0.00000
     86       7.7084      0.00000
     87       8.0996      0.00000
     88       8.1612      0.00000
     89       8.1937      0.00000
     90       8.2484      0.00000
     91       8.2778      0.00000
     92       8.6076      0.00000
     93       8.6275      0.00000
     94       8.8572      0.00000
     95       8.8668      0.00000
     96       8.8875      0.00000

[...]

 k-point    30 :       0.5000    0.5000    0.5000
  band No.  band energies     occupation
      1     -57.1115      2.00000
      2     -57.1082      2.00000
      3     -56.1154      2.00000
      4     -56.1146      2.00000
      5     -56.1130      2.00000
      6     -56.1121      2.00000
      7     -56.0826      2.00000
      8     -56.0651      2.00000
      9     -55.5660      2.00000
     10     -55.5554      2.00000
     11     -32.4518      2.00000
     12     -32.4516      2.00000
     13     -32.4426      2.00000
     14     -32.4424      2.00000
     15     -30.0119      2.00000
     16     -29.9989      2.00000
     17     -29.9693      2.00000
     18     -29.9692      2.00000
     19     -29.8606      2.00000
     20     -29.8358      2.00000
     21     -29.7757      2.00000
     22     -29.6512      2.00000
     23     -29.5581      2.00000
     24     -29.5580      2.00000
     25     -29.5236      2.00000
     26     -29.5235      2.00000
     27     -29.4819      2.00000
     28     -29.3744      2.00000
     29     -29.3743      2.00000
     30     -29.3518      2.00000
     31     -29.3472      2.00000
     32     -29.3471      2.00000
     33     -29.3349      2.00000
     34     -29.3279      2.00000
     35     -28.9802      2.00000
     36     -28.9449      2.00000
     37     -27.7493      2.00000
     38     -27.7487      2.00000
     39     -27.7273      2.00000
     40     -27.7267      2.00000
     41      -2.4807      2.00000
     42      -2.3962      2.00000
     43      -0.9966      2.00000
     44      -0.9366      2.00000
     45      -0.9320      2.00000
     46       0.4119      2.00000
     47       0.7572      2.00000
     48       1.1453      2.00000
     49       1.5481      2.00000
     50       1.5491      2.00000
     51       2.0531      2.00000
     52       2.1269      2.00000
     53       2.2573      2.00000
     54       2.2577      2.00000
     55       2.7097      2.00000
     56       2.7559      2.00000
     57       2.9533      2.00000
     58       3.0262      2.00000
     59       3.0269      2.00000
     60       3.0720      2.00000
[...]
     82       6.9416      0.00000
     83       7.0414      0.00000
     84       7.2888      0.00000
     85       7.5970      0.00000
     86       7.5973      0.00000
     87       7.7560      0.00000
     88       7.7561      0.00000
     89       7.8293      0.00000
     90       7.8466      0.00000
     91       7.8499      0.00000
     92       8.0340      0.00000
     93       8.1066      0.00000
     94       8.4747      0.00000
     95       8.9422      0.00000
     96       9.0531      0.00000

 soft charge-density along one line, spin component           1
         0         1         2         3         4         5         6         7         8         9
 total charge-density along one line

------------------------ aborting loop because EDIFF is reached ----------------------------------------

  FREE ENERGIE OF THE ION-ELECTRON SYSTEM (eV)
  free  energy   TOTEN  =      -273.42408063 eV

  energy  without entropy=     -273.42078259  energy(sigma->0) =     -273.42243161

 writing wavefunctions