 vasp.6.2.0 18Jan21 (build Jan 05 2022 15:41:44) complex

 executed on             LinuxIFC date 2025.05.07  20:48:59

 INCAR:
   SYSTEM = routine with relax: pwdword
   ICHARG = 2
   NPAR = 6
   KPAR = 2
   NCORE = 2
   ADDGRID = T
   PREC = Acc
   ENCUT = 600
   METAGGA = R2SCAN
   LASPH = .TRUE.
   LMIXTAU = .FALSE.
   ALGO = A
   EDIFF = 1E-9
   NELM = 100
   NELMIN = 6
   IALGO = 38
   LREAL = F
   NSW = 0
   ISIF = -1
   ISMEAR = 0
   SIGMA = 0.02

 POTCAR:    PAW_PBE B 06Sep2000
 POTCAR:    PAW_PBE Mo_sv 02Feb2006
 POTCAR:    PAW_PBE Si 05Jan2001
|           W    W    AA    RRRRR   N    N  II  N    N   GGGG   !!!           |
|           W    W   A  A   R    R  NN   N  II  NN   N  G    G  !!!           |
|           W    W  A    A  R    R  N N  N  II  N N  N  G       !!!           |
|           W WW W  AAAAAA  RRRRR   N  N N  II  N  N N  G  GGG   !            |
|           WW  WW  A    A  R   R   N   NN  II  N   NN  G    G                |
|           W    W  A    A  R    R  N    N  II  N    N   GGGG   !!!           |
|     For optimal performance we recommend to set                             |
|       NCORE = 2 up to number-of-cores-per-socket                            |
|     This setting can greatly improve the performance of VASP for DFT.       |
|     The default, NCORE=1 might be grossly inefficient on modern             |
|     multi-core architectures or massively parallel machines. Do your        |
|     Unfortunately you need to use the default for GW and RPA                |
|     calculations (for HF NCORE is supported but not extensively tested      |
|     yet).                                                                   |

 POTCAR:    PAW_PBE B 06Sep2000
   VRHFIN =B: s2p1

   TITEL  = PAW_PBE B 06Sep2000
   POMASS =   10.811; ZVAL   =    3.000    mass and valenz
   ENMAX  =  318.614; ENMIN  =  238.960 eV

 POTCAR:    PAW_PBE Mo_sv 02Feb2006
   VRHFIN =Mo: 4p5s4d

   TITEL  = PAW_PBE Mo_sv 02Feb2006
   POMASS =   95.940; ZVAL   =   14.000    mass and valenz
   ENMAX  =  242.676; ENMIN  =  182.007 eV

 POTCAR:    PAW_PBE Si 05Jan2001
   VRHFIN =Si: s2p2

   TITEL  = PAW_PBE Si 05Jan2001
   POMASS =   28.085; ZVAL   =    4.000    mass and valenz
   ENMAX  =  245.345; ENMIN  =  184.009 eV

  PAW_PBE B 06Sep2000                   :
  PAW_PBE Mo_sv 02Feb2006               :
  PAW_PBE Si 05Jan2001                  :

 POSCAR: EA230
  positions in direct lattice

 METAGGA = R2SCA    LMAXTAU =  6    LMIXTAU =  F

 ion  position               nearest neighbor table
   1  0.500  0.000  0.500-   4 1.94   6 1.94   5 1.95   3 1.95   8 2.05   7 2.05
   2  0.000  0.500  0.500-   4 1.94   6 1.94   7 1.95   8 1.95   5 2.05   3 2.05
   3  0.257  0.243  0.500-   1 1.95   2 2.05   4 2.75   6 2.75  10 2.79  10 2.79   9 2.79   9 2.79
                             6 2.82   4 2.82   8 2.83   7 2.83   7 2.83   8 2.83
   4  0.250  0.750  0.500-   1 1.94   2 1.94   7 2.75   8 2.75   3 2.75   5 2.75   3 2.82   5 2.82
                             8 2.82   7 2.82  10 2.83   9 2.83   9 2.83  10 2.83
   5  0.743  0.757  0.500-   1 1.95   2 2.05   4 2.75   6 2.75   9 2.79   9 2.79  10 2.79  10 2.79
                             6 2.82   4 2.82   8 2.83   7 2.83   8 2.83   7 2.83
   6  0.750  0.250  0.500-   1 1.94   2 1.94   8 2.75   7 2.75   3 2.75   5 2.75   3 2.82   5 2.82
                             7 2.82   8 2.82  10 2.83  10 2.83   9 2.83   9 2.83
   7  0.243  0.743  0.987-   2 1.95   1 2.05   4 2.75   6 2.75  10 2.79   9 2.79   9 2.79  10 2.79
                             6 2.82   4 2.82   3 2.83   5 2.83   5 2.83   3 2.83
   8  0.757  0.257  0.013-   2 1.95   1 2.05   6 2.75   4 2.75  10 2.79   9 2.79  10 2.79   9 2.79
                             4 2.82   6 2.82   3 2.83   5 2.83   3 2.83   5 2.83
   9  0.250  0.250  0.000-   8 2.79   7 2.79   5 2.79   5 2.79   3 2.79   3 2.79   8 2.79   7 2.79
                             6 2.83   4 2.83   4 2.83   6 2.83
  10  0.750  0.750  0.000-   8 2.79   7 2.79   3 2.79   3 2.79   5 2.79   5 2.79   8 2.79   7 2.79
                             6 2.83   6 2.83   4 2.83   4 2.83

  LATTYP: Found a body centered tetragonal cell.
 ALAT       =     5.6576426546
 C/A-ratio  =     1.3705404476

  Lattice vectors:

 A1 = (   4.8739878346,   0.0000000000,  -2.6981381227)
 A2 = (  -1.6933116149,   4.5703887347,  -2.6981381227)
 A3 = (   0.0000000000,   0.0000000000,   5.5709700000)

Analysis of symmetry for initial positions (statically):
 Subroutine PRICEL returns:
 Original cell was already a primitive cell.

 Routine SETGRP: Setting up the symmetry group for a
 body centered tetragonal supercell.

 Subroutine GETGRP returns: Found  4 space group operations
 (whereof  2 operations were pure point group operations)
 out of a pool of 16 trial point group operations.

The static configuration has the point symmetry S_2 .
 The point group associated with its full space group is C_2h.

Analysis of symmetry for dynamics (positions and initial velocities):
 Subroutine PRICEL returns:
 Original cell was already a primitive cell.

 Routine SETGRP: Setting up the symmetry group for a
 body centered tetragonal supercell.

 Subroutine GETGRP returns: Found  4 space group operations
 (whereof  2 operations were pure point group operations)
 out of a pool of 16 trial point group operations.

The dynamic configuration has the point symmetry S_2 .
 The point group associated with its full space group is C_2h.

 Subroutine INISYM returns: Found  4 space group operations
 (whereof  2 operations are pure point group operations),
 and found     1 'primitive' translations

                                     Primitive cell

  volume of cell :     124.0990

  direct lattice vectors                    reciprocal lattice vectors
     4.873987835  0.000000000 -2.698138123     0.205170803  0.076015001  0.000000000
    -1.693311615  4.570388735 -2.698138123     0.000000000  0.218799769  0.000000000
     0.000000000  0.000000000  5.570970000     0.099368542  0.142785003  0.179501954

  length of vectors
     5.570970000  5.570970000  5.570970000     0.218799769  0.218799769  0.249965229

  position of ions in fractional coordinates (direct lattice)
     0.500000000  0.000000000  0.500000000
     0.000000000  0.500000000  0.500000000
     0.256740000  0.243260000  0.500000000
     0.250000000  0.750000000  0.500000000
     0.743260000  0.756740000  0.500000000
     0.750000000  0.250000000  0.500000000
     0.243260000  0.743260000  0.986510000
     0.756740000  0.256740000  0.013490000
     0.250000000  0.250000000  0.000000000
     0.750000000  0.750000000  0.000000000

  ion indices of the primitive-cell ions
   primitive index   ion index
                 1           1
                 2           2
                 3           3
                 4           4
                 5           5
                 6           6
                 7           7
                 8           8
                 9           9
                10          10

 KPOINTS: EA

Automatic generation of k-mesh.
 Grid dimensions read from file:
 generate k-points for:    8    8    9

 Generating k-lattice:

  Cartesian coordinates                     Fractional coordinates (reciprocal lattice)
     0.025646350  0.009501875  0.000000000     0.125000000  0.000000000  0.000000000
     0.000000000  0.027349971  0.000000000     0.000000000  0.125000000  0.000000000
     0.011040949  0.015865000  0.019944662     0.000000000 -0.000000000  0.111111111

  Length of vectors
     0.027349971  0.027349971  0.027773914

  Shift w.r.t. Gamma in fractional coordinates (k-lattice)
     0.000000000  0.000000000  0.000000000

 WARNING: IBZKPT: internal override: KBLOWUP is changed to .FALSE.
      ... skipping the blow-up phase ...

 Subroutine IBZKPT returns following result:

 Found    165 irreducible k-points:

 Following reciprocal coordinates:
            Coordinates               Weight
  0.000000  0.000000  0.000000      1.000000
  0.125000  0.000000  0.000000      4.000000
  0.250000  0.000000  0.000000      4.000000
  0.375000  0.000000  0.000000      4.000000
  0.500000  0.000000  0.000000      2.000000
  0.125000  0.125000  0.000000      2.000000
  0.250000  0.125000  0.000000      4.000000
  0.375000  0.125000  0.000000      4.000000
  0.500000  0.125000  0.000000      4.000000
 -0.375000  0.125000  0.000000      4.000000
 -0.250000  0.125000  0.000000      4.000000
 -0.125000  0.125000  0.000000      2.000000
  0.250000  0.250000  0.000000      2.000000
  0.375000  0.250000  0.000000      4.000000
  0.500000  0.250000  0.000000      4.000000
 -0.375000  0.250000  0.000000      4.000000
 -0.250000  0.250000  0.000000      2.000000
  0.375000  0.375000  0.000000      2.000000
  0.500000  0.375000  0.000000      4.000000
 -0.375000  0.375000  0.000000      2.000000
  0.500000  0.500000  0.000000      1.000000
 -0.000000  0.000000  0.111111      2.000000
  0.125000  0.000000  0.111111      4.000000
  0.250000 -0.000000  0.111111      4.000000
  0.375000 -0.000000  0.111111      4.000000
  0.500000 -0.000000  0.111111      4.000000
 -0.375000  0.000000  0.111111      4.000000
 -0.250000  0.000000  0.111111      4.000000
 -0.125000  0.000000  0.111111      4.000000
  0.125000  0.125000  0.111111      2.000000
  0.250000  0.125000  0.111111      4.000000
  0.375000  0.125000  0.111111      4.000000
  0.500000  0.125000  0.111111      4.000000
 -0.375000  0.125000  0.111111      4.000000
 -0.250000  0.125000  0.111111      4.000000
 -0.125000  0.125000  0.111111      4.000000
  0.250000  0.250000  0.111111      2.000000
  0.375000  0.250000  0.111111      4.000000
  0.500000  0.250000  0.111111      4.000000
 -0.375000  0.250000  0.111111      4.000000
 -0.250000  0.250000  0.111111      4.000000
 -0.125000  0.250000  0.111111      4.000000
  0.375000  0.375000  0.111111      2.000000
  0.500000  0.375000  0.111111      4.000000
 -0.375000  0.375000  0.111111      4.000000
 -0.250000  0.375000  0.111111      4.000000
 -0.125000  0.375000  0.111111      4.000000
  0.500000  0.500000  0.111111      2.000000
 -0.375000  0.500000  0.111111      4.000000
 -0.250000  0.500000  0.111111      4.000000
 -0.125000  0.500000  0.111111      4.000000
 -0.375000 -0.375000  0.111111      2.000000
 -0.250000 -0.375000  0.111111      4.000000
 -0.125000 -0.375000  0.111111      4.000000
 -0.250000 -0.250000  0.111111      2.000000
 -0.125000 -0.250000  0.111111      4.000000
 -0.125000 -0.125000  0.111111      2.000000
 -0.000000  0.000000  0.222222      2.000000
  0.125000  0.000000  0.222222      4.000000
  0.250000  0.000000  0.222222      4.000000
[...]
  0.375000  0.375000  0.444444      2.000000
  0.500000  0.375000  0.444444      4.000000
 -0.375000  0.375000  0.444444      4.000000
 -0.250000  0.375000  0.444444      4.000000
 -0.125000  0.375000  0.444444      4.000000
  0.500000  0.500000  0.444444      2.000000
 -0.375000  0.500000  0.444444      4.000000
 -0.250000  0.500000  0.444444      4.000000
 -0.125000  0.500000  0.444444      4.000000
 -0.375000 -0.375000  0.444444      2.000000
 -0.250000 -0.375000  0.444444      4.000000
 -0.125000 -0.375000  0.444444      4.000000
[...]
   0.50000000 -0.00000000  0.11111111       0.007
  -0.37500000  0.00000000  0.11111111       0.007
  -0.25000000  0.00000000  0.11111111       0.007
  -0.12500000  0.00000000  0.11111111       0.007
   0.12500000  0.12500000  0.11111111       0.003
   0.25000000  0.12500000  0.11111111       0.007
   0.37500000  0.12500000  0.11111111       0.007
   0.50000000  0.12500000  0.11111111       0.007
  -0.37500000  0.12500000  0.11111111       0.007
  -0.25000000  0.12500000  0.11111111       0.007
  -0.12500000  0.12500000  0.11111111       0.007
   0.25000000  0.25000000  0.11111111       0.003
   0.37500000  0.25000000  0.11111111       0.007
   0.50000000  0.25000000  0.11111111       0.007
  -0.37500000  0.25000000  0.11111111       0.007
  -0.25000000  0.25000000  0.11111111       0.007
  -0.12500000  0.25000000  0.11111111       0.007
   0.37500000  0.37500000  0.11111111       0.003
   0.50000000  0.37500000  0.11111111       0.007
  -0.37500000  0.37500000  0.11111111       0.007
  -0.25000000  0.37500000  0.11111111       0.007
  -0.12500000  0.37500000  0.11111111       0.007
   0.50000000  0.50000000  0.11111111       0.003
  -0.37500000  0.50000000  0.11111111       0.007
  -0.25000000  0.50000000  0.11111111       0.007
  -0.12500000  0.50000000  0.11111111       0.007
  -0.37500000 -0.37500000  0.11111111       0.003
  -0.25000000 -0.37500000  0.11111111       0.007
  -0.12500000 -0.37500000  0.11111111       0.007
  -0.25000000 -0.25000000  0.11111111       0.003
  -0.12500000 -0.25000000  0.11111111       0.007
  -0.12500000 -0.12500000  0.11111111       0.003
  -0.00000000  0.00000000  0.22222222       0.003
   0.12500000  0.00000000  0.22222222       0.007
   0.25000000  0.00000000  0.22222222       0.007
[...]
   0.37500000  0.37500000  0.44444444       0.003
   0.50000000  0.37500000  0.44444444       0.007
  -0.37500000  0.37500000  0.44444444       0.007
  -0.25000000  0.37500000  0.44444444       0.007
  -0.12500000  0.37500000  0.44444444       0.007
   0.50000000  0.50000000  0.44444444       0.003
  -0.37500000  0.50000000  0.44444444       0.007
  -0.25000000  0.50000000  0.44444444       0.007
  -0.12500000  0.50000000  0.44444444       0.007
  -0.37500000 -0.37500000  0.44444444       0.003
  -0.25000000 -0.37500000  0.44444444       0.007
  -0.12500000 -0.37500000  0.44444444       0.007
  -0.25000000 -0.25000000  0.44444444       0.003
  -0.12500000 -0.25000000  0.44444444       0.007
  -0.12500000 -0.12500000  0.44444444       0.003

 position of ions in fractional coordinates (direct lattice)
   0.50000000  0.00000000  0.50000000
   0.00000000  0.50000000  0.50000000
   0.25674000  0.24326000  0.50000000
   0.25000000  0.75000000  0.50000000
   0.74326000  0.75674000  0.50000000
   0.75000000  0.25000000  0.50000000
   0.24326000  0.74326000  0.98651000
   0.75674000  0.25674000  0.01349000
   0.25000000  0.25000000  0.00000000
   0.75000000  0.75000000  0.00000000

 position of ions in cartesian coordinates  (Angst):
   2.43699392  0.00000000  1.43641594
  -0.84665581  2.28519437  1.43641594
   0.83943265  1.11179276  1.43641594
  -0.05148675  3.42779155  0.08734688
   2.34124357  3.45859597 -1.26172218
   3.23216297  1.14259718  0.08734688
  -0.07292451  3.39698713  2.83405039
   3.25360073  1.17340160 -2.65935664
   0.79516905  1.14259718 -1.34906906
   2.38550716  3.42779155 -4.04720718

 k-point   1 :   0.0000 0.0000 0.0000  plane waves:    4143
 k-point   2 :   0.1250 0.0000 0.0000  plane waves:    4139
 k-point   3 :   0.2500 0.0000 0.0000  plane waves:    4144
 k-point   4 :   0.3750 0.0000 0.0000  plane waves:    4137
 k-point   5 :   0.5000 0.0000 0.0000  plane waves:    4142
 k-point   6 :   0.1250 0.1250 0.0000  plane waves:    4129
 k-point   7 :   0.2500 0.1250 0.0000  plane waves:    4146
 k-point   8 :   0.3750 0.1250 0.0000  plane waves:    4150
 k-point   9 :   0.5000 0.1250 0.0000  plane waves:    4140
 k-point  10 :  -0.3750 0.1250 0.0000  plane waves:    4135
 k-point  11 :  -0.2500 0.1250 0.0000  plane waves:    4127
 k-point  12 :  -0.1250 0.1250 0.0000  plane waves:    4126
 k-point  13 :   0.2500 0.2500 0.0000  plane waves:    4137
 k-point  14 :   0.3750 0.2500 0.0000  plane waves:    4141
 k-point  15 :   0.5000 0.2500 0.0000  plane waves:    4137
 k-point  16 :  -0.3750 0.2500 0.0000  plane waves:    4133
 k-point  17 :  -0.2500 0.2500 0.0000  plane waves:    4136
 k-point  18 :   0.3750 0.3750 0.0000  plane waves:    4148
 k-point  19 :   0.5000 0.3750 0.0000  plane waves:    4143
 k-point  20 :  -0.3750 0.3750 0.0000  plane waves:    4144
 k-point  21 :   0.5000 0.5000 0.0000  plane waves:    4148
 k-point  22 :  -0.0000 0.0000 0.1111  plane waves:    4126
 k-point  23 :   0.1250 0.0000 0.1111  plane waves:    4130
 k-point  24 :   0.2500-0.0000 0.1111  plane waves:    4130
 k-point  25 :   0.3750-0.0000 0.1111  plane waves:    4139
 k-point  26 :   0.5000-0.0000 0.1111  plane waves:    4145
 k-point  27 :  -0.3750 0.0000 0.1111  plane waves:    4145
 k-point  28 :  -0.2500 0.0000 0.1111  plane waves:    4132
 k-point  29 :  -0.1250 0.0000 0.1111  plane waves:    4138
 k-point  30 :   0.1250 0.1250 0.1111  plane waves:    4128
 k-point  31 :   0.2500 0.1250 0.1111  plane waves:    4131
 k-point  32 :   0.3750 0.1250 0.1111  plane waves:    4133
 k-point  33 :   0.5000 0.1250 0.1111  plane waves:    4135
 k-point  34 :  -0.3750 0.1250 0.1111  plane waves:    4125
 k-point  35 :  -0.2500 0.1250 0.1111  plane waves:    4134
 k-point  36 :  -0.1250 0.1250 0.1111  plane waves:    4135
 k-point  37 :   0.2500 0.2500 0.1111  plane waves:    4125
 k-point  38 :   0.3750 0.2500 0.1111  plane waves:    4133
 k-point  39 :   0.5000 0.2500 0.1111  plane waves:    4138
 k-point  40 :  -0.3750 0.2500 0.1111  plane waves:    4132
 k-point  41 :  -0.2500 0.2500 0.1111  plane waves:    4135
 k-point  42 :  -0.1250 0.2500 0.1111  plane waves:    4134
 k-point  43 :   0.3750 0.3750 0.1111  plane waves:    4123
 k-point  44 :   0.5000 0.3750 0.1111  plane waves:    4144
 k-point  45 :  -0.3750 0.3750 0.1111  plane waves:    4146
 k-point  46 :  -0.2500 0.3750 0.1111  plane waves:    4144
 k-point  47 :  -0.1250 0.3750 0.1111  plane waves:    4149
 k-point  48 :   0.5000 0.5000 0.1111  plane waves:    4138
 k-point  49 :  -0.3750 0.5000 0.1111  plane waves:    4159
 k-point  50 :  -0.2500 0.5000 0.1111  plane waves:    4152
 k-point  51 :  -0.1250 0.5000 0.1111  plane waves:    4139
 k-point  52 :  -0.3750-0.3750 0.1111  plane waves:    4144
 k-point  53 :  -0.2500-0.3750 0.1111  plane waves:    4150
 k-point  54 :  -0.1250-0.3750 0.1111  plane waves:    4146
 k-point  55 :  -0.2500-0.2500 0.1111  plane waves:    4137
 k-point  56 :  -0.1250-0.2500 0.1111  plane waves:    4141
 k-point  57 :  -0.1250-0.1250 0.1111  plane waves:    4135
 k-point  58 :  -0.0000 0.0000 0.2222  plane waves:    4126
 k-point  59 :   0.1250 0.0000 0.2222  plane waves:    4128
 k-point  60 :   0.2500 0.0000 0.2222  plane waves:    4138
[...]
 k-point 151 :   0.3750 0.3750 0.4444  plane waves:    4151
 k-point 152 :   0.5000 0.3750 0.4444  plane waves:    4148
 k-point 153 :  -0.3750 0.3750 0.4444  plane waves:    4139
 k-point 154 :  -0.2500 0.3750 0.4444  plane waves:    4156
 k-point 155 :  -0.1250 0.3750 0.4444  plane waves:    4151
 k-point 156 :   0.5000 0.5000 0.4444  plane waves:    4136
 k-point 157 :  -0.3750 0.5000 0.4444  plane waves:    4143
 k-point 158 :  -0.2500 0.5000 0.4444  plane waves:    4156
 k-point 159 :  -0.1250 0.5000 0.4444  plane waves:    4149
 k-point 160 :  -0.3750-0.3750 0.4444  plane waves:    4151
 k-point 161 :  -0.2500-0.3750 0.4444  plane waves:    4153
 k-point 162 :  -0.1250-0.3750 0.4444  plane waves:    4141
 k-point 163 :  -0.2500-0.2500 0.4444  plane waves:    4138
 k-point 164 :  -0.1250-0.2500 0.4444  plane waves:    4134
 k-point 165 :  -0.1250-0.1250 0.4444  plane waves:    4126

 maximum and minimum number of plane-waves per node :      2104     2042

 maximum number of plane-waves:      4166
 maximum index in each direction:
   IXMAX=   11   IYMAX=   11   IZMAX=   11
   IXMIN=  -11   IYMIN=  -11   IZMIN=  -11

 parallel 3D FFT for wavefunctions:
    minimum data exchange during FFTs selected (reduces bandwidth)
 parallel 3D FFT for charge:
    minimum data exchange during FFTs selected (reduces bandwidth)

 Broyden mixing: mesh for mixing (old mesh)
   NGX = 23   NGY = 23   NGZ = 23
  (NGX  = 96   NGY  = 96   NGZ  = 96)
  gives a total of  12167 points

 initial charge density was supplied:
 charge density of overlapping atoms calculated
 number of electron      98.0000000 magnetization
 keeping initial charge density in first step

 Maximum index for augmentation-charges        25229 (set IRDMAX)

 First call to EWALD:  gamma=   0.355
 Maximum number of real-space cells 3x 3x 3
 Maximum number of reciprocal cells 3x 3x 3

--------------------------------------- Iteration      1(   1)  ---------------------------------------

 eigenvalue-minimisations  : 19812
 total energy-change (2. order) : 0.1116406E+04  (-0.6825178E+04)
 number of electron      98.0000000 magnetization
 augmentation part       98.0000000 magnetization

 Free energy of the ion-electron system (eV)
  alpha Z        PSCENC =       673.20786395
  Ewald energy   TEWEN  =     -9683.01905224
  -Hartree energ DENC   =     -2292.64040084
  -exchange      EXHF   =         0.00000000
  -V(xc)+E(xc)   XCENC  =       473.56629743
  PAW double counting   =      9166.97638771    -9126.13493418
  entropy T*S    EENTRO =        -0.00079092
  eigenvalues    EBANDS =       382.28317672
  atomic energy  EATOM  =     11522.16744521
  free energy    TOTEN  =      1116.40599286 eV

  energy without entropy =     1116.40678377  energy(sigma->0) =     1116.40638832

[...]

 eigenvalue-minimisations  : 21768
 total energy-change (2. order) :-0.1295629E+04  (-0.1260124E+04)
 number of electron      98.0000000 magnetization
 augmentation part       98.0000000 magnetization

[...]

 eigenvalue-minimisations  :     0
 total energy-change (2. order) : 0.7483062E+02  (-0.2152035E+02)
 number of electron      98.0000001 magnetization
 augmentation part       14.9226768 magnetization

[...]

 eigenvalue-minimisations  :     0
 total energy-change (2. order) :-0.1449735E-08  ( 0.3785003E-09)
 number of electron      98.0000001 magnetization
 augmentation part       14.3860959 magnetization

[...]

 eigenvalue-minimisations  :     0
 total energy-change (2. order) :-0.1156877E-08  ( 0.1489866E-10)
 number of electron      98.0000001 magnetization
 augmentation part       14.3860957 magnetization

[...]

--------------------------------------- Iteration      1(  36)  ---------------------------------------

 eigenvalue-minimisations  :     0
 total energy-change (2. order) :-0.5366019E-09  (-0.2899077E-11)
 number of electron      98.0000001 magnetization
 augmentation part       14.3860957 magnetization

 Free energy of the ion-electron system (eV)
  alpha Z        PSCENC =       673.20786395
  Ewald energy   TEWEN  =     -9683.01905224
  -Hartree energ DENC   =     -2173.96775789
  -exchange      EXHF   =         0.00000000
  -V(xc)+E(xc)   XCENC  =       483.31919609
  PAW double counting   =     13687.40370137   -13668.49122856
  entropy T*S    EENTRO =        -0.00134486
  eigenvalues    EBANDS =     -1024.31416092
  atomic energy  EATOM  =     11522.16744521
  free energy    TOTEN  =      -183.69533785 eV

  energy without entropy =     -183.69399299  energy(sigma->0) =     -183.69466542

  average scaling for gradient   1.0976

 average (electrostatic) potential at core
  the test charge radii are     0.7672  1.0818  0.9892
  (the norm of the test charge is              1.0000)
       1 -20.6671       2 -20.6651       3 -73.8042       4 -73.7888       5 -73.8042
       6 -73.7888       7 -73.8018       8 -73.8018       9 -80.0068      10 -80.0068

 E-fermi :  12.7804     XC(G=0): -14.3454     alpha+bet :-20.7603

 Fermi energy:        12.7804344258

 k-point     1 :       0.0000    0.0000    0.0000
  band No.  band energies     occupation
      1     -50.1625      2.00000
      2     -49.9646      2.00000
      3     -49.9500      2.00000
      4     -49.9476      2.00000
      5     -49.8588      2.00000
      6     -49.8418      2.00000
      7     -24.7764      2.00000
      8     -24.1989      2.00000
      9     -24.1442      2.00000
     10     -24.1412      2.00000
     11     -23.9060      2.00000
     12     -23.9040      2.00000
     13     -23.8156      2.00000
     14     -23.2916      2.00000
     15     -23.2751      2.00000
     16     -23.2741      2.00000
     17     -23.1311      2.00000
     18     -23.0771      2.00000
     19     -23.0166      2.00000
     20     -22.9953      2.00000
     21     -22.9928      2.00000
     22     -22.9541      2.00000
     23     -22.9104      2.00000
     24     -22.9084      2.00000
     25       0.8361      2.00000
     26       2.2276      2.00000
     27       3.1362      2.00000
     28       5.1134      2.00000
     29       5.1145      2.00000
     30       5.2716      2.00000
     31       7.9873      2.00000
     32       7.9889      2.00000
     33       8.0264      2.00000
     34       8.1372      2.00000
     35       8.3242      2.00000
     36       8.3608      2.00000
     37       9.7592      2.00000
     38       9.8624      2.00000
     39       9.8638      2.00000
     40      10.8954      2.00000
     41      10.9446      2.00000
     42      11.0883      2.00000
     43      11.0883      2.00000
     44      11.1782      2.00000
     45      11.1785      2.00000
     46      11.5386      2.00000
     47      11.5402      2.00000
     48      11.6241      2.00000
     49      12.9851      0.00000
     50      12.9856      0.00000
     51      13.2165      0.00000
     52      13.8732      0.00000
     53      14.0834      0.00000
     54      14.2142      0.00000
     55      14.4109      0.00000
     56      14.6935      0.00000
     57      14.6943      0.00000
     58      15.0504      0.00000
     59      15.7887      0.00000
     60      16.5853      0.00000

[...]

 k-point   165 :      -0.1250   -0.1250    0.4444
  band No.  band energies     occupation
      1     -50.0971      2.00000
      2     -49.9940      2.00000
      3     -49.9510      2.00000
      4     -49.9239      2.00000
      5     -49.9088      2.00000
      6     -49.8539      2.00000
      7     -24.4571      2.00000
      8     -24.1403      2.00000
      9     -24.0110      2.00000
     10     -23.8743      2.00000
     11     -23.8159      2.00000
     12     -23.6722      2.00000
     13     -23.6164      2.00000
     14     -23.4967      2.00000
     15     -23.4656      2.00000
     16     -23.3388      2.00000
     17     -23.2943      2.00000
     18     -23.2145      2.00000
     19     -23.1704      2.00000
     20     -23.1550      2.00000
     21     -23.0797      2.00000
     22     -23.0654      2.00000
     23     -23.0555      2.00000
     24     -22.9461      2.00000
     25       2.1466      2.00000
     26       3.1548      2.00000
     27       3.6981      2.00000
     28       4.4889      2.00000
     29       5.7429      2.00000
     30       6.5963      2.00000
     31       7.0305      2.00000
     32       7.6328      2.00000
     33       8.0310      2.00000
     34       8.0628      2.00000
     35       8.1247      2.00000
     36       8.4225      2.00000
     37       8.6665      2.00000
     38       8.7964      2.00000
     39       8.9704      2.00000
     40       9.2278      2.00000
     41       9.7364      2.00000
     42      10.2306      2.00000
     43      10.7750      2.00000
     44      11.0249      2.00000
     45      11.5352      2.00000
     46      11.6566      2.00000
     47      11.7802      2.00000
     48      12.1433      2.00000
     49      12.3019      2.00000
     50      12.9814      0.00000
     51      13.2442      0.00000
     52      13.5681      0.00000
     53      13.9853      0.00000
     54      14.0556      0.00000
     55      14.3954      0.00000
     56      14.9456      0.00000
     57      15.3054      0.00000
     58      16.0966      0.00000
     59      16.4778      0.00000
     60      16.7041      0.00000

 soft charge-density along one line, spin component           1
         0         1         2         3         4         5         6         7         8         9
 total charge-density along one line

------------------------ aborting loop because EDIFF is reached ----------------------------------------

  FREE ENERGIE OF THE ION-ELECTRON SYSTEM (eV)
  free  energy   TOTEN  =      -183.69533785 eV

  energy  without entropy=     -183.69399299  energy(sigma->0) =     -183.69466542

 writing wavefunctions