 vasp.6.2.0 18Jan21 (build Jan 05 2022 15:41:44) complex

 executed on             LinuxIFC date 2025.05.07  15:41:17

 INCAR:
   SYSTEM = routine with relax: pwdword
   ICHARG = 2
   NPAR = 6
   KPAR = 2
   NCORE = 2
   ADDGRID = T
   PREC = Acc
   ENCUT = 600
   METAGGA = R2SCAN
   LASPH = .TRUE.
   LMIXTAU = .FALSE.
   ALGO = A
   EDIFF = 1E-9
   NELM = 100
   NELMIN = 6
   IALGO = 38
   LREAL = F
   NSW = 0
   ISIF = -1
   ISMEAR = 0
   SIGMA = 0.02
   SYMPREC = 1E-4

 POTCAR:    PAW_PBE B 06Sep2000
 POTCAR:    PAW_PBE Mo_sv 02Feb2006
 POTCAR:    PAW_PBE Si 05Jan2001
|           W    W    AA    RRRRR   N    N  II  N    N   GGGG   !!!           |
|           W    W   A  A   R    R  NN   N  II  NN   N  G    G  !!!           |
|           W    W  A    A  R    R  N N  N  II  N N  N  G       !!!           |
|           W WW W  AAAAAA  RRRRR   N  N N  II  N  N N  G  GGG   !            |
|           WW  WW  A    A  R   R   N   NN  II  N   NN  G    G                |
|           W    W  A    A  R    R  N    N  II  N    N   GGGG   !!!           |
|     For optimal performance we recommend to set                             |
|       NCORE = 2 up to number-of-cores-per-socket                            |
|     This setting can greatly improve the performance of VASP for DFT.       |
|     The default, NCORE=1 might be grossly inefficient on modern             |
|     multi-core architectures or massively parallel machines. Do your        |
|     Unfortunately you need to use the default for GW and RPA                |
|     calculations (for HF NCORE is supported but not extensively tested      |
|     yet).                                                                   |

 POTCAR:    PAW_PBE B 06Sep2000
   VRHFIN =B: s2p1

   TITEL  = PAW_PBE B 06Sep2000
   POMASS =   10.811; ZVAL   =    3.000    mass and valenz
   ENMAX  =  318.614; ENMIN  =  238.960 eV

 POTCAR:    PAW_PBE Mo_sv 02Feb2006
   VRHFIN =Mo: 4p5s4d

   TITEL  = PAW_PBE Mo_sv 02Feb2006
   POMASS =   95.940; ZVAL   =   14.000    mass and valenz
   ENMAX  =  242.676; ENMIN  =  182.007 eV

 POTCAR:    PAW_PBE Si 05Jan2001
   VRHFIN =Si: s2p2

   TITEL  = PAW_PBE Si 05Jan2001
   POMASS =   28.085; ZVAL   =    4.000    mass and valenz
   ENMAX  =  245.345; ENMIN  =  184.009 eV

  PAW_PBE B 06Sep2000                   :
  PAW_PBE Mo_sv 02Feb2006               :
  PAW_PBE Si 05Jan2001                  :

 POSCAR: EA58
  positions in direct lattice

 METAGGA = R2SCA    LMAXTAU =  6    LMIXTAU =  F

 ion  position               nearest neighbor table
   1  0.719  0.219  0.938-  12 0.44   5 2.13   8 2.17  10 2.17   7 2.73
   2  0.281  0.781  0.062-  11 0.44   5 2.13   8 2.17  10 2.17   7 2.73
   3  0.219  0.281  0.500-  14 0.44   7 2.13   9 2.17   6 2.17   5 2.73
   4  0.781  0.719  0.500-  13 0.44   7 2.13   9 2.17   6 2.17   5 2.73
   5  0.500  0.000  0.500-   1 2.13   2 2.13  13 2.30  14 2.30  12 2.57  11 2.57   4 2.73   3 2.73
                             6 3.25   6 3.25   8 3.25   8 3.25   9 3.25   9 3.25  10 3.25  10 3.25
   6  0.500  0.500  0.500-  13 2.16  14 2.16   3 2.17   4 2.17   5 3.25   5 3.25   7 3.25   7 3.25
                             8 3.44   8 3.44  10 3.44  10 3.44
   7  0.000  0.500  0.500-   3 2.13   4 2.13  11 2.30  12 2.30  13 2.57  14 2.57   2 2.73   1 2.73
                             9 3.25   9 3.25   6 3.25  10 3.25  10 3.25   6 3.25   8 3.25   8 3.25
   8  0.500  0.000  0.000-  11 2.16  12 2.16   1 2.17   2 2.17   5 3.25   5 3.25   7 3.25   7 3.25
                             6 3.44   6 3.44   9 3.44   9 3.44
   9  0.000  0.000  0.500-  13 2.16  14 2.16   3 2.17   4 2.17   7 3.25   7 3.25   5 3.25   5 3.25
                             8 3.44  10 3.44  10 3.44   8 3.44
  10  0.000  0.500  0.000-  11 2.16  12 2.16   1 2.17   2 2.17   7 3.25   7 3.25   5 3.25   5 3.25
                             6 3.44   9 3.44   6 3.44   9 3.44
  11  0.236  0.736  0.972-   2 0.44   8 2.16  10 2.16   7 2.30   5 2.57
  12  0.764  0.264  0.028-   1 0.44   8 2.16  10 2.16   7 2.30   5 2.57
  13  0.736  0.764  0.500-   4 0.44   6 2.16   9 2.16   5 2.30   7 2.57
  14  0.264  0.236  0.500-   3 0.44   6 2.16   9 2.16   5 2.30   7 2.57

  LATTYP: Found a body centered tetragonal cell.
 ALAT       =     6.8746278918
 C/A-ratio  =     1.2514650860

  Lattice vectors:

 A1 = (   5.8316358668,   0.0000000000,  -2.8507073068)
 A2 = (  -2.2724613624,   5.3706513794,  -2.8507073068)
 A3 = (   0.0000000000,   0.0000000000,   6.4911100000)

Analysis of symmetry for initial positions (statically):
 Subroutine PRICEL returns:
 Original cell was already a primitive cell.

 Routine SETGRP: Setting up the symmetry group for a
 body centered tetragonal supercell.

 Subroutine GETGRP returns: Found 16 space group operations
 (whereof  8 operations were pure point group operations)
 out of a pool of 16 trial point group operations.

The static configuration has the point symmetry C_4h.
 The point group associated with its full space group is D_4h.

Analysis of symmetry for dynamics (positions and initial velocities):
 Subroutine PRICEL returns:
 Original cell was already a primitive cell.

 Routine SETGRP: Setting up the symmetry group for a
 body centered tetragonal supercell.

 Subroutine GETGRP returns: Found 16 space group operations
 (whereof  8 operations were pure point group operations)
 out of a pool of 16 trial point group operations.

The dynamic configuration has the point symmetry C_4h.
 The point group associated with its full space group is D_4h.

 Subroutine INISYM returns: Found 16 space group operations
 (whereof  8 operations are pure point group operations),
 and found     1 'primitive' translations

                                     Primitive cell

  volume of cell :     203.2995

  direct lattice vectors                    reciprocal lattice vectors
     5.831635867  0.000000000 -2.850707307     0.171478471  0.072556972  0.000000000
    -2.272461362  5.370651379 -2.850707307     0.000000000  0.186197154  0.000000000
     0.000000000  0.000000000  6.491110000     0.075308372  0.113637309  0.154056856

  length of vectors
     6.491110000  6.491110000  6.491110000     0.186197154  0.186197154  0.205714132

  position of ions in fractional coordinates (direct lattice)
     0.719140000  0.219140000  0.938280000
     0.280860000  0.780860000  0.061720000
     0.219140000  0.280860000  0.500000000
     0.780860000  0.719140000  0.500000000
     0.500000000  0.000000000  0.500000000
     0.500000000  0.500000000  0.500000000
     1.000000000  0.500000000  0.500000000
     0.500000000  0.000000000  1.000000000
     0.000000000  0.000000000  0.500000000
     1.000000000  0.500000000  1.000000000
     0.236070000  0.736070000  0.972130000
     0.763930000  0.263930000  0.027870000
     0.736070000  0.763930000  0.500000000
     0.263930000  0.236070000  0.500000000

  ion indices of the primitive-cell ions
   primitive index   ion index
                 1           1
                 2           2
                 3           3
                 4           4
                 5           5
                 6           6
                 7           7
                 8           8
                 9           9
                10          10
                11          11
                12          12
                13          13
                14          14

 KPOINTS: EA

Automatic generation of k-mesh.
 Grid dimensions read from file:
 generate k-points for:    7    7    7

 Generating k-lattice:

  Cartesian coordinates                     Fractional coordinates (reciprocal lattice)
     0.024496924  0.010365282  0.000000000     0.142857143 -0.000000000  0.000000000
     0.000000000  0.026599593  0.000000000     0.000000000  0.142857143  0.000000000
     0.010758339  0.016233901  0.022008122    -0.000000000  0.000000000  0.142857143

  Length of vectors
     0.026599593  0.026599593  0.029387733

  Shift w.r.t. Gamma in fractional coordinates (k-lattice)
     0.000000000  0.000000000  0.000000000

 Subroutine IBZKPT returns following result:

 Found     40 irreducible k-points:

 Following reciprocal coordinates:
            Coordinates               Weight
  0.000000  0.000000  0.000000      1.000000
  0.142857  0.000000  0.000000      8.000000
  0.285714  0.000000  0.000000      8.000000
  0.428571  0.000000  0.000000      8.000000
  0.142857  0.142857  0.000000      8.000000
  0.285714  0.142857  0.000000     16.000000
  0.428571  0.142857  0.000000     16.000000
 -0.428571  0.142857  0.000000     16.000000
 -0.285714  0.142857  0.000000     16.000000
 -0.142857  0.142857  0.000000      4.000000
  0.285714  0.285714  0.000000      8.000000
  0.428571  0.285714  0.000000     16.000000
 -0.428571  0.285714  0.000000     16.000000
 -0.285714  0.285714  0.000000      4.000000
  0.428571  0.428571  0.000000      8.000000
 -0.428571  0.428571  0.000000      4.000000
  0.142857  0.142857  0.142857      8.000000
  0.285714  0.142857  0.142857     16.000000
 -0.142857  0.142857  0.142857      4.000000
  0.285714  0.285714  0.142857      8.000000
  0.428571  0.285714  0.142857      8.000000
 -0.285714  0.285714  0.142857      8.000000
 -0.142857  0.285714  0.142857      8.000000
 -0.428571  0.428571  0.142857      8.000000
 -0.285714  0.428571  0.142857     16.000000
 -0.142857  0.428571  0.142857      8.000000
 -0.428571 -0.428571  0.142857      8.000000
 -0.285714 -0.428571  0.142857     16.000000
 -0.142857 -0.428571  0.142857      8.000000
 -0.285714 -0.285714  0.142857      8.000000
 -0.142857 -0.285714  0.142857      8.000000
 -0.142857 -0.142857  0.142857      2.000000
 -0.285714  0.285714  0.285714      4.000000
 -0.428571  0.428571  0.285714      8.000000
 -0.285714  0.428571  0.285714      8.000000
 -0.428571 -0.428571  0.285714      8.000000
 -0.285714 -0.428571  0.285714      8.000000
 -0.285714 -0.285714  0.285714      2.000000
 -0.428571  0.428571  0.428571      4.000000
 -0.428571 -0.428571  0.428571      2.000000

 Following cartesian coordinates:
            Coordinates               Weight
  0.000000  0.000000  0.000000      1.000000
  0.024497  0.010365  0.000000      8.000000
  0.048994  0.020731  0.000000      8.000000
  0.073491  0.031096  0.000000      8.000000
  0.024497  0.036965  0.000000      8.000000
  0.048994  0.047330  0.000000     16.000000
  0.073491  0.057695  0.000000     16.000000
 -0.073491 -0.004496  0.000000     16.000000
 -0.048994  0.005869  0.000000     16.000000
 -0.024497  0.016234  0.000000      4.000000
  0.048994  0.073930  0.000000      8.000000
  0.073491  0.084295  0.000000     16.000000
 -0.073491  0.022103  0.000000     16.000000
 -0.048994  0.032469  0.000000      4.000000
  0.073491  0.110895  0.000000      8.000000
 -0.073491  0.048703  0.000000      4.000000
  0.035255  0.053199  0.022008      8.000000
  0.059752  0.063564  0.022008     16.000000
 -0.013739  0.032468  0.022008      4.000000
  0.059752  0.090164  0.022008      8.000000
  0.084249  0.100529  0.022008      8.000000
 -0.038236  0.048703  0.022008      8.000000
 -0.013739  0.059068  0.022008      8.000000
 -0.062732  0.064937  0.022008      8.000000
 -0.038236  0.075302  0.022008     16.000000
[...]
  -0.03823551  0.04870252  0.02200812       0.023
  -0.01373859  0.05906781  0.02200812       0.023
  -0.06273243  0.06493684  0.02200812       0.023
  -0.03823551  0.07530212  0.02200812       0.047
  -0.01373859  0.08566740  0.02200812       0.023
  -0.06273243 -0.09466072  0.02200812       0.023
  -0.03823551 -0.08429544  0.02200812       0.047
  -0.01373859 -0.07393016  0.02200812       0.023
  -0.03823551 -0.05769585  0.02200812       0.023
  -0.01373859 -0.04733057  0.02200812       0.023
  -0.01373859 -0.02073097  0.02200812       0.006
  -0.02747717  0.06493643  0.04401624       0.012
  -0.05197410  0.08117074  0.04401624       0.023
  -0.02747717  0.09153602  0.04401624       0.023
  -0.05197410 -0.07842682  0.04401624       0.023
  -0.02747717 -0.06806154  0.04401624       0.023
  -0.02747717 -0.04146195  0.04401624       0.006
  -0.04121576  0.09740464  0.06602437       0.012
  -0.04121576 -0.06219292  0.06602437       0.006

 k-points in reciprocal lattice and weights: EA
   0.00000000  0.00000000  0.00000000       0.003
   0.14285714  0.00000000  0.00000000       0.023
   0.28571429  0.00000000  0.00000000       0.023
   0.42857143  0.00000000  0.00000000       0.023
   0.14285714  0.14285714  0.00000000       0.023
   0.28571429  0.14285714  0.00000000       0.047
   0.42857143  0.14285714  0.00000000       0.047
  -0.42857143  0.14285714  0.00000000       0.047
  -0.28571429  0.14285714  0.00000000       0.047
  -0.14285714  0.14285714  0.00000000       0.012
   0.28571429  0.28571429  0.00000000       0.023
   0.42857143  0.28571429  0.00000000       0.047
  -0.42857143  0.28571429  0.00000000       0.047
  -0.28571429  0.28571429  0.00000000       0.012
   0.42857143  0.42857143  0.00000000       0.023
  -0.42857143  0.42857143  0.00000000       0.012
   0.14285714  0.14285714  0.14285714       0.023
   0.28571429  0.14285714  0.14285714       0.047
  -0.14285714  0.14285714  0.14285714       0.012
   0.28571429  0.28571429  0.14285714       0.023
   0.42857143  0.28571429  0.14285714       0.023
  -0.28571429  0.28571429  0.14285714       0.023
  -0.14285714  0.28571429  0.14285714       0.023
  -0.42857143  0.42857143  0.14285714       0.023
  -0.28571429  0.42857143  0.14285714       0.047
  -0.14285714  0.42857143  0.14285714       0.023
  -0.42857143 -0.42857143  0.14285714       0.023
  -0.28571429 -0.42857143  0.14285714       0.047
  -0.14285714 -0.42857143  0.14285714       0.023
  -0.28571429 -0.28571429  0.14285714       0.023
  -0.14285714 -0.28571429  0.14285714       0.023
  -0.14285714 -0.14285714  0.14285714       0.006
  -0.28571429  0.28571429  0.28571429       0.012
  -0.42857143  0.42857143  0.28571429       0.023
  -0.28571429  0.42857143  0.28571429       0.023
  -0.42857143 -0.42857143  0.28571429       0.023
  -0.28571429 -0.42857143  0.28571429       0.023
  -0.28571429 -0.28571429  0.28571429       0.006
  -0.42857143  0.42857143  0.42857143       0.012
  -0.42857143 -0.42857143  0.42857143       0.006

 position of ions in fractional coordinates (direct lattice)
   0.71914000  0.21914000  0.93828000
   0.28086000  0.78086000  0.06172000
   0.21914000  0.28086000  0.50000000
   0.78086000  0.71914000  0.50000000
   0.50000000  0.00000000  0.50000000
   0.50000000  0.50000000  0.50000000
   0.00000000  0.50000000  0.50000000
   0.50000000  0.00000000  0.00000000
   0.00000000  0.00000000  0.50000000
   0.00000000  0.50000000  0.00000000
   0.23607000  0.73607000  0.97213000
   0.76393000  0.26393000  0.02787000
   0.73607000  0.76393000  0.50000000
   0.26393000  0.23607000  0.50000000

 position of ions in cartesian coordinates  (Angst):
   3.69577543  1.17692454  3.41571704
  -0.13660093  4.19372684 -2.62602165
   0.63970119  1.50840115  1.82020135
   2.91947332  3.86225023 -1.03050596
   2.91581793  0.00000000  1.82020135
   1.77958725  2.68532569  0.39484769
  -1.13623068  2.68532569  1.82020135
   2.91581793  0.00000000 -1.42535365
   0.00000000  0.00000000  3.24555500
  -1.13623068  2.68532569 -1.42535365
  -0.29601636  3.95317536  3.53891616
   3.85519086  1.41747602 -2.74922078
   2.55649080  4.10280171 -1.03050596
   1.00268370  1.26784967  1.82020135

 k-point   1 :   0.0000 0.0000 0.0000  plane waves:    6741
 k-point   2 :   0.1429 0.0000 0.0000  plane waves:    6766
 k-point   3 :   0.2857 0.0000 0.0000  plane waves:    6768
 k-point   4 :   0.4286 0.0000 0.0000  plane waves:    6764
 k-point   5 :   0.1429 0.1429 0.0000  plane waves:    6776
 k-point   6 :   0.2857 0.1429 0.0000  plane waves:    6782
 k-point   7 :   0.4286 0.1429 0.0000  plane waves:    6776
 k-point   8 :  -0.4286 0.1429 0.0000  plane waves:    6778
 k-point   9 :  -0.2857 0.1429 0.0000  plane waves:    6754
 k-point  10 :  -0.1429 0.1429 0.0000  plane waves:    6759
 k-point  11 :   0.2857 0.2857 0.0000  plane waves:    6793
 k-point  12 :   0.4286 0.2857 0.0000  plane waves:    6794
 k-point  13 :  -0.4286 0.2857 0.0000  plane waves:    6780
 k-point  14 :  -0.2857 0.2857 0.0000  plane waves:    6765
 k-point  15 :   0.4286 0.4286 0.0000  plane waves:    6801
 k-point  16 :  -0.4286 0.4286 0.0000  plane waves:    6796
 k-point  17 :   0.1429 0.1429 0.1429  plane waves:    6766
 k-point  18 :   0.2857 0.1429 0.1429  plane waves:    6776
 k-point  19 :  -0.1429 0.1429 0.1429  plane waves:    6766
 k-point  20 :   0.2857 0.2857 0.1429  plane waves:    6780
 k-point  21 :   0.4286 0.2857 0.1429  plane waves:    6774
 k-point  22 :  -0.2857 0.2857 0.1429  plane waves:    6776
 k-point  23 :  -0.1429 0.2857 0.1429  plane waves:    6777
 k-point  24 :  -0.4286 0.4286 0.1429  plane waves:    6795
 k-point  25 :  -0.2857 0.4286 0.1429  plane waves:    6795
 k-point  26 :  -0.1429 0.4286 0.1429  plane waves:    6794
 k-point  27 :  -0.4286-0.4286 0.1429  plane waves:    6783
 k-point  28 :  -0.2857-0.4286 0.1429  plane waves:    6794
 k-point  29 :  -0.1429-0.4286 0.1429  plane waves:    6789
 k-point  30 :  -0.2857-0.2857 0.1429  plane waves:    6804
 k-point  31 :  -0.1429-0.2857 0.1429  plane waves:    6796
 k-point  32 :  -0.1429-0.1429 0.1429  plane waves:    6789
 k-point  33 :  -0.2857 0.2857 0.2857  plane waves:    6782
 k-point  34 :  -0.4286 0.4286 0.2857  plane waves:    6801
 k-point  35 :  -0.2857 0.4286 0.2857  plane waves:    6801
 k-point  36 :  -0.4286-0.4286 0.2857  plane waves:    6789
 k-point  37 :  -0.2857-0.4286 0.2857  plane waves:    6811
 k-point  38 :  -0.2857-0.2857 0.2857  plane waves:    6797
 k-point  39 :  -0.4286 0.4286 0.4286  plane waves:    6794
 k-point  40 :  -0.4286-0.4286 0.4286  plane waves:    6818

 maximum and minimum number of plane-waves per node :      3410     3370

 maximum number of plane-waves:      6818
 maximum index in each direction:
   IXMAX=   13   IYMAX=   13   IZMAX=   12
   IXMIN=  -13   IYMIN=  -13   IZMIN=  -13

 parallel 3D FFT for wavefunctions:
    minimum data exchange during FFTs selected (reduces bandwidth)
 parallel 3D FFT for charge:
    minimum data exchange during FFTs selected (reduces bandwidth)

 Broyden mixing: mesh for mixing (old mesh)
   NGX = 25   NGY = 25   NGZ = 25
  (NGX  =108   NGY  =108   NGZ  =108)
  gives a total of  15625 points

 initial charge density was supplied:
 charge density of overlapping atoms calculated
 number of electron     112.0000000 magnetization
 keeping initial charge density in first step

 Maximum index for augmentation-charges        22085 (set IRDMAX)

 First call to EWALD:  gamma=   0.301
 Maximum number of real-space cells 3x 3x 3
 Maximum number of reciprocal cells 3x 3x 3

--------------------------------------- Iteration      1(   1)  ---------------------------------------

 eigenvalue-minimisations  :  6132
 total energy-change (2. order) : 0.1928340E+04  (-0.7738454E+04)
 number of electron     112.0000000 magnetization
 augmentation part      112.0000000 magnetization

 Free energy of the ion-electron system (eV)
  alpha Z        PSCENC =       504.18814546
  Ewald energy   TEWEN  =     -7722.42272041
  -Hartree energ DENC   =     -3083.63616970
  -exchange      EXHF   =         0.00000000
  -V(xc)+E(xc)   XCENC  =       476.83808301
  PAW double counting   =      9416.99506030    -9355.19475361
  entropy T*S    EENTRO =        -0.00131091
  eigenvalues    EBANDS =      -179.06615877
  atomic energy  EATOM  =     11870.63976582
  free energy    TOTEN  =      1928.33994118 eV

  energy without entropy =     1928.34125209  energy(sigma->0) =     1928.34059664

[...]

 eigenvalue-minimisations  :  6672
 total energy-change (2. order) :-0.1486240E+04  (-0.1448258E+04)
 number of electron     112.0000000 magnetization
 augmentation part      112.0000000 magnetization

[...]

 eigenvalue-minimisations  :     0
 total energy-change (2. order) :-0.1750886E-06  ( 0.4939517E-07)
 number of electron     111.9999981 magnetization
 augmentation part       15.4189221 magnetization

[...]

 eigenvalue-minimisations  :     0
 total energy-change (2. order) : 0.2980232E-07  ( 0.5690312E-08)
 number of electron     111.9999981 magnetization
 augmentation part       15.4189213 magnetization

[...]

 eigenvalue-minimisations  :     0
 total energy-change (2. order) : 0.2980232E-07  ( 0.1770495E-10)
 number of electron     111.9999981 magnetization
 augmentation part       15.4189218 magnetization

[...]

 eigenvalue-minimisations  :     0
 total energy-change (2. order) :-0.1862645E-08  ( 0.3431180E-13)
 number of electron     111.9999981 magnetization
 augmentation part       15.4189218 magnetization

[...]

 eigenvalue-minimisations  :     0
 total energy-change (2. order) :-0.1676381E-07  (-0.2262873E-13)
 number of electron     111.9999981 magnetization
 augmentation part       15.4189218 magnetization

[...]

--------------------------------------- Iteration      1(  71)  ---------------------------------------

 eigenvalue-minimisations  :     0
 total energy-change (2. order) : 0.0000000E+00  (-0.2527670E-13)
 number of electron     111.9999981 magnetization
 augmentation part       15.4189218 magnetization

 Free energy of the ion-electron system (eV)
  alpha Z        PSCENC =       504.18814546
  Ewald energy   TEWEN  =     -7722.42272041
  -Hartree energ DENC   =     -3101.61673366
  -exchange      EXHF   =         0.00000000
  -V(xc)+E(xc)   XCENC  =       499.23260255
  PAW double counting   =   9597949.37716486 -9597915.24540506
  entropy T*S    EENTRO =        -0.00304242
  eigenvalues    EBANDS =     -1495.19229619
  atomic energy  EATOM  =     11870.63976582
  free energy    TOTEN  =       588.95748094 eV

  energy without entropy =      588.96052336  energy(sigma->0) =      588.95900215

  average scaling for gradient   0.8558

 average (electrostatic) potential at core
  the test charge radii are     0.7672  1.0818  0.9892
  (the norm of the test charge is              1.0000)
       1 -70.4501       2 -70.4501       3 -70.4570       4 -70.4573       5 -79.1053
       6 -79.2783       7 -79.1068       8 -79.2791       9 -79.2783      10 -79.2772
      11 -93.6589      12 -93.6587      13 -93.6593      14 -93.6590

 E-fermi :   7.4585     XC(G=0): -11.7650     alpha+bet :-16.1240

 Fermi energy:         7.4584986025

 k-point     1 :       0.0000    0.0000    0.0000
  band No.  band energies     occupation
      1     -55.3594      2.00000
      2     -55.3496      2.00000
      3     -55.3494      2.00000
      4     -55.3438      2.00000
      5     -55.1594      2.00000
      6     -55.1567      2.00000
      7     -29.1481      2.00000
      8     -29.1481      2.00000
      9     -29.1454      2.00000
     10     -29.1089      2.00000
     11     -28.8169      2.00000
     12     -28.8165      2.00000
     13     -28.7498      2.00000
     14     -28.7317      2.00000
     15     -28.6776      2.00000
     16     -28.6773      2.00000
     17     -28.6379      2.00000
     18     -28.6370      2.00000
     19     -28.6235      2.00000
     20     -28.5773      2.00000
     21     -28.5393      2.00000
     22     -28.5389      2.00000
     23     -28.3671      2.00000
     24     -28.3293      2.00000
     25      -2.0900      2.00000
     26      -2.0784      2.00000
     27      -2.0770      2.00000
     28      -1.1878      2.00000
     29      -1.1422      2.00000
     30       0.2939      2.00000
     31       0.2953      2.00000
     32       0.5203      2.00000
     33       0.5380      2.00000
     34       0.6602      2.00000
     35       0.6969      2.00000
     36       0.8389      2.00000
     37       2.2964      2.00000
     38       2.2966      2.00000
     39       3.3162      2.00000
     40       3.3188      2.00000
     41       3.8172      2.00000
     42       3.8637      2.00000
     43       3.8640      2.00000
     44       4.8268      2.00000
     45       5.1746      2.00000
     46       5.1750      2.00000
     47       5.3336      2.00000
     48       5.6229      2.00000
     49       6.3372      2.00000
     50       6.5574      2.00000
     51       6.5575      2.00000
     52       6.7586      2.00000
     53       7.2628      2.00000
     54       7.3641      2.00000
     55       7.3642      2.00000
     56       7.4049      1.99985
     57       7.7150      0.00000
     58       8.0080      0.00000
     59       8.3550      0.00000
     60       8.7639      0.00000
     61       8.7761      0.00000
     62       9.0639      0.00000
     63       9.2500      0.00000
     64       9.3329      0.00000
     65      10.0850      0.00000
     66      10.5300      0.00000
     67      10.9610      0.00000
     68      11.1924      0.00000
     69      11.2604      0.00000
     70      11.3562      0.00000
     71      11.4998      0.00000
     72      11.7080      0.00000

[...]

 k-point    40 :      -0.4286   -0.4286    0.4286
  band No.  band energies     occupation
      1     -55.3563      2.00000
      2     -55.3503      2.00000
      3     -55.3502      2.00000
      4     -55.3430      2.00000
      5     -55.1601      2.00000
      6     -55.1585      2.00000
      7     -29.1216      2.00000
      8     -29.1198      2.00000
      9     -29.1193      2.00000
     10     -29.1006      2.00000
     11     -28.7604      2.00000
     12     -28.7591      2.00000
     13     -28.7327      2.00000
     14     -28.7028      2.00000
     15     -28.7027      2.00000
     16     -28.6924      2.00000
     17     -28.6491      2.00000
     18     -28.6476      2.00000
     19     -28.6240      2.00000
     20     -28.5983      2.00000
     21     -28.5981      2.00000
     22     -28.5776      2.00000
     23     -28.3943      2.00000
     24     -28.3852      2.00000
     25      -2.1146      2.00000
     26      -1.7542      2.00000
     27      -0.7102      2.00000
     28      -0.6967      2.00000
     29      -0.6964      2.00000
     30      -0.4130      2.00000
     31      -0.2123      2.00000
     32       0.0286      2.00000
     33       0.0288      2.00000
     34       0.7516      2.00000
     35       0.7524      2.00000
     36       1.1184      2.00000
     37       1.1794      2.00000
     38       1.8739      2.00000
     39       2.3631      2.00000
     40       2.3651      2.00000
     41       4.2596      2.00000
     42       4.7470      2.00000
     43       5.4932      2.00000
     44       5.4934      2.00000
     45       5.5086      2.00000
     46       5.7192      2.00000
     47       5.7197      2.00000
     48       5.7952      2.00000
     49       5.8777      2.00000
     50       5.8918      2.00000
     51       6.2697      2.00000
     52       6.3845      2.00000
     53       7.1303      2.00000
     54       7.5384      0.00000
     55       7.5386      0.00000
     56       7.6109      0.00000
     57       7.7558      0.00000
     58       8.0809      0.00000
     59       8.0810      0.00000
     60       8.2433      0.00000
     61       8.2437      0.00000
     62       8.6130      0.00000
     63       8.8761      0.00000
     64       8.8769      0.00000
     65       8.9912      0.00000
     66       9.3935      0.00000
     67       9.5497      0.00000
     68       9.5499      0.00000
     69       9.8092      0.00000
     70      10.9331      0.00000
     71      11.6582      0.00000
     72      12.7629      0.00000

 soft charge-density along one line, spin component           1
         0         1         2         3         4         5         6         7         8         9
 total charge-density along one line

------------------------ aborting loop because EDIFF is reached ----------------------------------------

  FREE ENERGIE OF THE ION-ELECTRON SYSTEM (eV)
  free  energy   TOTEN  =       588.95748094 eV

  energy  without entropy=      588.96052336  energy(sigma->0) =      588.95900215

 writing wavefunctions