 vasp.6.2.0 18Jan21 (build Jan 05 2022 15:41:44) complex

 executed on             LinuxIFC date 2025.05.07  17:01:19

 INCAR:
   SYSTEM = routine with relax: pwdword
   ICHARG = 2
   NPAR = 6
   KPAR = 2
   NCORE = 2
   ADDGRID = T
   PREC = Acc
   ENCUT = 600
   METAGGA = R2SCAN
   LASPH = .TRUE.
   LMIXTAU = .FALSE.
   ALGO = A
   EDIFF = 1E-9
   NELM = 100
   NELMIN = 6
   IALGO = 38
   LREAL = F
   NSW = 0
   ISIF = -1
   ISMEAR = 0
   SIGMA = 0.02
   SYMPREC = 1E-4

 POTCAR:    PAW_PBE B 06Sep2000
 POTCAR:    PAW_PBE Mo_sv 02Feb2006
 POTCAR:    PAW_PBE Si 05Jan2001
|           W    W    AA    RRRRR   N    N  II  N    N   GGGG   !!!           |
|           W    W   A  A   R    R  NN   N  II  NN   N  G    G  !!!           |
|           W    W  A    A  R    R  N N  N  II  N N  N  G       !!!           |
|           W WW W  AAAAAA  RRRRR   N  N N  II  N  N N  G  GGG   !            |
|           WW  WW  A    A  R   R   N   NN  II  N   NN  G    G                |
|           W    W  A    A  R    R  N    N  II  N    N   GGGG   !!!           |
|     For optimal performance we recommend to set                             |
|       NCORE = 2 up to number-of-cores-per-socket                            |
|     This setting can greatly improve the performance of VASP for DFT.       |
|     The default, NCORE=1 might be grossly inefficient on modern             |
|     multi-core architectures or massively parallel machines. Do your        |
|     Unfortunately you need to use the default for GW and RPA                |
|     calculations (for HF NCORE is supported but not extensively tested      |
|     yet).                                                                   |

 POTCAR:    PAW_PBE B 06Sep2000
   VRHFIN =B: s2p1

   TITEL  = PAW_PBE B 06Sep2000
   POMASS =   10.811; ZVAL   =    3.000    mass and valenz
   ENMAX  =  318.614; ENMIN  =  238.960 eV

 POTCAR:    PAW_PBE Mo_sv 02Feb2006
   VRHFIN =Mo: 4p5s4d

   TITEL  = PAW_PBE Mo_sv 02Feb2006
   POMASS =   95.940; ZVAL   =   14.000    mass and valenz
   ENMAX  =  242.676; ENMIN  =  182.007 eV

 POTCAR:    PAW_PBE Si 05Jan2001
   VRHFIN =Si: s2p2

   TITEL  = PAW_PBE Si 05Jan2001
   POMASS =   28.085; ZVAL   =    4.000    mass and valenz
   ENMAX  =  245.345; ENMIN  =  184.009 eV

  PAW_PBE B 06Sep2000                   :
  PAW_PBE Mo_sv 02Feb2006               :
  PAW_PBE Si 05Jan2001                  :

 POSCAR: EA106
  positions in direct lattice

 METAGGA = R2SCA    LMAXTAU =  6    LMIXTAU =  F

 ion  position               nearest neighbor table
   1  0.000  0.000  0.000-   3 2.25   5 2.25
   2  0.500  0.500  0.000-   3 2.25   5 2.25
   3  0.250  0.250  0.000-   8 2.17  10 2.17   9 2.18   7 2.18   1 2.25   2 2.25   4 3.07   6 3.07
                             4 3.07   6 3.07
   4  0.250  0.750  0.500-   9 2.08   7 2.08   8 2.17  10 2.17   3 3.07   5 3.07   3 3.07   5 3.07

   5  0.750  0.750  0.000-  10 2.17   8 2.17   9 2.18   7 2.18   1 2.25   2 2.25   4 3.07   6 3.07
                             6 3.07   4 3.07
   6  0.750  0.250  0.500-   8 2.17  10 2.17   9 2.27   7 2.27   5 3.07   3 3.07   5 3.07   3 3.07

   7  0.012  0.512  0.022-   4 2.08   5 2.18   3 2.18   6 2.27  10 3.01   8 3.01  10 3.14   8 3.14

[...]

  10  0.000  0.000  0.500-   4 2.17   6 2.17   3 2.17   5 2.17   9 3.01   7 3.01   9 3.14   7 3.14

  LATTYP: Found a body centered tetragonal cell.
 ALAT       =     6.1483675918
 C/A-ratio  =     1.4627459309

  Lattice vectors:

 A1 = (   5.3544870588,   0.0000000000,  -3.2328378871)
 A2 = (  -1.7053911900,   5.0756450381,  -3.2328378871)
 A3 = (   0.0000000000,   0.0000000000,   6.2547400000)

Analysis of symmetry for initial positions (statically):
 Subroutine PRICEL returns:
 Original cell was already a primitive cell.

 Routine SETGRP: Setting up the symmetry group for a
 body centered tetragonal supercell.

 Subroutine GETGRP returns: Found  4 space group operations
 (whereof  2 operations were pure point group operations)
 out of a pool of 16 trial point group operations.

The static configuration has the point symmetry C_2 .
 The point group associated with its full space group is C_2v.

Analysis of symmetry for dynamics (positions and initial velocities):
 Subroutine PRICEL returns:
 Original cell was already a primitive cell.

 Routine SETGRP: Setting up the symmetry group for a
 body centered tetragonal supercell.

 Subroutine GETGRP returns: Found  4 space group operations
 (whereof  2 operations were pure point group operations)
 out of a pool of 16 trial point group operations.

The dynamic configuration has the point symmetry C_2 .
 The point group associated with its full space group is C_2v.

 Subroutine INISYM returns: Found  4 space group operations
 (whereof  2 operations are pure point group operations),
 and found     1 'primitive' translations

                                     Primitive cell

  volume of cell :     169.9880

  direct lattice vectors                    reciprocal lattice vectors
     5.354487059  0.000000000 -3.232837887     0.186759252  0.062750169  0.000000000
    -1.705391190  5.075645038 -3.232837887     0.000000000  0.197019294  0.000000000
     0.000000000  0.000000000  6.254740000     0.096528774  0.134264983  0.159878748

  length of vectors
     6.254740000  6.254740000  6.254740000     0.197019294  0.197019294  0.230013269

  position of ions in fractional coordinates (direct lattice)
     0.000000000  0.000000000  0.000000000
     0.500000000  0.500000000  0.000000000
     0.250000000  0.250000000  0.000000000
     0.250000000  0.750000000  0.500000000
     0.750000000  0.750000000  0.000000000
     0.750000000  0.250000000  0.500000000
     0.011710000  0.511710000  0.022100000
     0.500000000  0.500000000  0.500000000
     0.489600000  0.989600000  0.977900000
     0.000000000  0.000000000  0.500000000

  ion indices of the primitive-cell ions
   primitive index   ion index
                 1           1
                 2           2
                 3           3
                 4           4
                 5           5
                 6           6
                 7           7
                 8           8
                 9           9
                10          10

 KPOINTS: EA

Automatic generation of k-mesh.
 Grid dimensions read from file:
 generate k-points for:    7    7    8

 Generating k-lattice:

  Cartesian coordinates                     Fractional coordinates (reciprocal lattice)
     0.026679893  0.008964310  0.000000000     0.142857143  0.000000000  0.000000000
     0.000000000  0.028145613  0.000000000     0.000000000  0.142857143  0.000000000
     0.012066097  0.016783123  0.019984843     0.000000000  0.000000000  0.125000000

  Length of vectors
     0.028145613  0.028145613  0.028751659

  Shift w.r.t. Gamma in fractional coordinates (k-lattice)
     0.000000000  0.000000000  0.000000000

 WARNING: IBZKPT: internal override: KBLOWUP is changed to .FALSE.
      ... skipping the blow-up phase ...

 Subroutine IBZKPT returns following result:

 Found    116 irreducible k-points:

 Following reciprocal coordinates:
            Coordinates               Weight
  0.000000  0.000000  0.000000      1.000000
  0.142857  0.000000  0.000000      4.000000
  0.285714  0.000000  0.000000      4.000000
  0.428571  0.000000  0.000000      4.000000
  0.142857  0.142857  0.000000      2.000000
  0.285714  0.142857  0.000000      4.000000
  0.428571  0.142857  0.000000      4.000000
 -0.428571  0.142857  0.000000      4.000000
 -0.285714  0.142857  0.000000      4.000000
 -0.142857  0.142857  0.000000      2.000000
  0.285714  0.285714  0.000000      2.000000
  0.428571  0.285714  0.000000      4.000000
 -0.428571  0.285714  0.000000      4.000000
 -0.285714  0.285714  0.000000      2.000000
  0.428571  0.428571  0.000000      2.000000
 -0.428571  0.428571  0.000000      2.000000
  0.000000 -0.000000  0.125000      2.000000
  0.142857  0.000000  0.125000      4.000000
  0.285714 -0.000000  0.125000      4.000000
  0.428571 -0.000000  0.125000      4.000000
 -0.428571 -0.000000  0.125000      4.000000
 -0.285714 -0.000000  0.125000      4.000000
 -0.142857 -0.000000  0.125000      4.000000
  0.142857  0.142857  0.125000      2.000000
  0.285714  0.142857  0.125000      4.000000
  0.428571  0.142857  0.125000      4.000000
 -0.428571  0.142857  0.125000      4.000000
 -0.285714  0.142857  0.125000      4.000000
 -0.142857  0.142857  0.125000      4.000000
  0.285714  0.285714  0.125000      2.000000
  0.428571  0.285714  0.125000      4.000000
 -0.428571  0.285714  0.125000      4.000000
 -0.285714  0.285714  0.125000      4.000000
 -0.142857  0.285714  0.125000      4.000000
  0.428571  0.428571  0.125000      2.000000
 -0.428571  0.428571  0.125000      4.000000
 -0.285714  0.428571  0.125000      4.000000
 -0.142857  0.428571  0.125000      4.000000
 -0.428571 -0.428571  0.125000      2.000000
 -0.285714 -0.428571  0.125000      4.000000
 -0.142857 -0.428571  0.125000      4.000000
 -0.285714 -0.285714  0.125000      2.000000
 -0.142857 -0.285714  0.125000      4.000000
 -0.142857 -0.142857  0.125000      2.000000
  0.000000 -0.000000  0.250000      2.000000
  0.142857 -0.000000  0.250000      4.000000
  0.285714  0.000000  0.250000      4.000000
  0.428571 -0.000000  0.250000      4.000000
 -0.428571 -0.000000  0.250000      4.000000
 -0.285714 -0.000000  0.250000      4.000000
 -0.142857 -0.000000  0.250000      4.000000
  0.142857  0.142857  0.250000      2.000000
  0.285714  0.142857  0.250000      4.000000
  0.428571  0.142857  0.250000      4.000000
 -0.428571  0.142857  0.250000      4.000000
 -0.285714  0.142857  0.250000      4.000000
 -0.142857  0.142857  0.250000      4.000000
  0.285714  0.285714  0.250000      2.000000
  0.428571  0.285714  0.250000      4.000000
 -0.428571  0.285714  0.250000      4.000000
[...]
  0.142857 -0.000000  0.500000      4.000000
  0.285714 -0.000000  0.500000      4.000000
  0.428571 -0.000000  0.500000      4.000000
  0.142857  0.142857  0.500000      2.000000
  0.285714  0.142857  0.500000      4.000000
  0.428571  0.142857  0.500000      4.000000
 -0.428571  0.142857  0.500000      4.000000
 -0.285714  0.142857  0.500000      4.000000
 -0.142857  0.142857  0.500000      2.000000
  0.285714  0.285714  0.500000      2.000000
  0.428571  0.285714  0.500000      4.000000
 -0.428571  0.285714  0.500000      4.000000
 -0.285714  0.285714  0.500000      2.000000
  0.428571  0.428571  0.500000      2.000000
 -0.428571  0.428571  0.500000      2.000000

 Following cartesian coordinates:
            Coordinates               Weight
  0.000000  0.000000  0.000000      1.000000
  0.026680  0.008964  0.000000      4.000000
  0.053360  0.017929  0.000000      4.000000
  0.080040  0.026893  0.000000      4.000000
  0.026680  0.037110  0.000000      2.000000
  0.053360  0.046074  0.000000      4.000000
  0.080040  0.055039  0.000000      4.000000
 -0.080040  0.001253  0.000000      4.000000
 -0.053360  0.010217  0.000000      4.000000
 -0.026680  0.019181  0.000000      2.000000
  0.053360  0.074220  0.000000      2.000000
  0.080040  0.083184  0.000000      4.000000
 -0.080040  0.029398  0.000000      4.000000
[...]
   0.14285714  0.14285714  0.00000000       0.005
   0.28571429  0.14285714  0.00000000       0.010
   0.42857143  0.14285714  0.00000000       0.010
  -0.42857143  0.14285714  0.00000000       0.010
  -0.28571429  0.14285714  0.00000000       0.010
  -0.14285714  0.14285714  0.00000000       0.005
   0.28571429  0.28571429  0.00000000       0.005
   0.42857143  0.28571429  0.00000000       0.010
  -0.42857143  0.28571429  0.00000000       0.010
  -0.28571429  0.28571429  0.00000000       0.005
   0.42857143  0.42857143  0.00000000       0.005
  -0.42857143  0.42857143  0.00000000       0.005
   0.00000000 -0.00000000  0.12500000       0.005
   0.14285714  0.00000000  0.12500000       0.010
   0.28571429 -0.00000000  0.12500000       0.010
   0.42857143 -0.00000000  0.12500000       0.010
  -0.42857143 -0.00000000  0.12500000       0.010
  -0.28571429 -0.00000000  0.12500000       0.010
  -0.14285714 -0.00000000  0.12500000       0.010
   0.14285714  0.14285714  0.12500000       0.005
   0.28571429  0.14285714  0.12500000       0.010
   0.42857143  0.14285714  0.12500000       0.010
  -0.42857143  0.14285714  0.12500000       0.010
  -0.28571429  0.14285714  0.12500000       0.010
  -0.14285714  0.14285714  0.12500000       0.010
   0.28571429  0.28571429  0.12500000       0.005
   0.42857143  0.28571429  0.12500000       0.010
  -0.42857143  0.28571429  0.12500000       0.010
  -0.28571429  0.28571429  0.12500000       0.010
  -0.14285714  0.28571429  0.12500000       0.010
   0.42857143  0.42857143  0.12500000       0.005
  -0.42857143  0.42857143  0.12500000       0.010
  -0.28571429  0.42857143  0.12500000       0.010
  -0.14285714  0.42857143  0.12500000       0.010
  -0.42857143 -0.42857143  0.12500000       0.005
  -0.28571429 -0.42857143  0.12500000       0.010
  -0.14285714 -0.42857143  0.12500000       0.010
  -0.28571429 -0.28571429  0.12500000       0.005
  -0.14285714 -0.28571429  0.12500000       0.010
  -0.14285714 -0.14285714  0.12500000       0.005
   0.00000000 -0.00000000  0.25000000       0.005
   0.14285714 -0.00000000  0.25000000       0.010
   0.28571429  0.00000000  0.25000000       0.010
   0.42857143 -0.00000000  0.25000000       0.010
  -0.42857143 -0.00000000  0.25000000       0.010
  -0.28571429 -0.00000000  0.25000000       0.010
  -0.14285714 -0.00000000  0.25000000       0.010
   0.14285714  0.14285714  0.25000000       0.005
   0.28571429  0.14285714  0.25000000       0.010
   0.42857143  0.14285714  0.25000000       0.010
  -0.42857143  0.14285714  0.25000000       0.010
  -0.28571429  0.14285714  0.25000000       0.010
  -0.14285714  0.14285714  0.25000000       0.010
   0.28571429  0.28571429  0.25000000       0.005
   0.42857143  0.28571429  0.25000000       0.010
  -0.42857143  0.28571429  0.25000000       0.010
[...]
   0.14285714 -0.00000000  0.50000000       0.010
   0.28571429 -0.00000000  0.50000000       0.010
   0.42857143 -0.00000000  0.50000000       0.010
   0.14285714  0.14285714  0.50000000       0.005
   0.28571429  0.14285714  0.50000000       0.010
   0.42857143  0.14285714  0.50000000       0.010
  -0.42857143  0.14285714  0.50000000       0.010
  -0.28571429  0.14285714  0.50000000       0.010
  -0.14285714  0.14285714  0.50000000       0.005
   0.28571429  0.28571429  0.50000000       0.005
   0.42857143  0.28571429  0.50000000       0.010
  -0.42857143  0.28571429  0.50000000       0.010
  -0.28571429  0.28571429  0.50000000       0.005
   0.42857143  0.42857143  0.50000000       0.005
  -0.42857143  0.42857143  0.50000000       0.005

 position of ions in fractional coordinates (direct lattice)
   0.00000000  0.00000000  0.00000000
   0.50000000  0.50000000  0.00000000
   0.25000000  0.25000000  0.00000000
   0.25000000  0.75000000  0.50000000
   0.75000000  0.75000000  0.00000000
   0.75000000  0.25000000  0.50000000
   0.01171000  0.51171000  0.02210000
   0.50000000  0.50000000  0.50000000
   0.48960000  0.98960000  0.97790000
   0.00000000  0.00000000  0.50000000

 position of ions in cartesian coordinates  (Angst):
   0.00000000  0.00000000  0.00000000
   1.82454793  2.53782252 -3.23283789
   0.91227397  1.26891126 -1.61641894
   0.05957837  3.80673378 -0.10546789
   2.73682190  3.80673378 -4.84925683
   3.58951750  1.26891126 -0.10546789
  -0.80996468  2.59725832 -1.55390225
   1.82454793  2.53782252 -0.10546789
   0.93390174  5.02285833  1.33449644
   0.00000000  0.00000000  3.12737000

 k-point   1 :   0.0000 0.0000 0.0000  plane waves:    5713
 k-point   2 :   0.1429 0.0000 0.0000  plane waves:    5702
 k-point   3 :   0.2857 0.0000 0.0000  plane waves:    5678
 k-point   4 :   0.4286 0.0000 0.0000  plane waves:    5675
 k-point   5 :   0.1429 0.1429 0.0000  plane waves:    5698
 k-point   6 :   0.2857 0.1429 0.0000  plane waves:    5668
 k-point   7 :   0.4286 0.1429 0.0000  plane waves:    5676
 k-point   8 :  -0.4286 0.1429 0.0000  plane waves:    5673
 k-point   9 :  -0.2857 0.1429 0.0000  plane waves:    5669
 k-point  10 :  -0.1429 0.1429 0.0000  plane waves:    5695
 k-point  11 :   0.2857 0.2857 0.0000  plane waves:    5676
 k-point  12 :   0.4286 0.2857 0.0000  plane waves:    5676
 k-point  13 :  -0.4286 0.2857 0.0000  plane waves:    5676
 k-point  14 :  -0.2857 0.2857 0.0000  plane waves:    5665
 k-point  15 :   0.4286 0.4286 0.0000  plane waves:    5663
 k-point  16 :  -0.4286 0.4286 0.0000  plane waves:    5670
 k-point  17 :   0.0000-0.0000 0.1250  plane waves:    5693
 k-point  18 :   0.1429 0.0000 0.1250  plane waves:    5676
 k-point  19 :   0.2857-0.0000 0.1250  plane waves:    5670
 k-point  20 :   0.4286-0.0000 0.1250  plane waves:    5677
 k-point  21 :  -0.4286-0.0000 0.1250  plane waves:    5671
 k-point  22 :  -0.2857-0.0000 0.1250  plane waves:    5692
 k-point  23 :  -0.1429-0.0000 0.1250  plane waves:    5711
 k-point  24 :   0.1429 0.1429 0.1250  plane waves:    5674
 k-point  25 :   0.2857 0.1429 0.1250  plane waves:    5687
 k-point  26 :   0.4286 0.1429 0.1250  plane waves:    5679
 k-point  27 :  -0.4286 0.1429 0.1250  plane waves:    5673
 k-point  28 :  -0.2857 0.1429 0.1250  plane waves:    5672
 k-point  29 :  -0.1429 0.1429 0.1250  plane waves:    5683
 k-point  30 :   0.2857 0.2857 0.1250  plane waves:    5680
 k-point  31 :   0.4286 0.2857 0.1250  plane waves:    5677
 k-point  32 :  -0.4286 0.2857 0.1250  plane waves:    5679
 k-point  33 :  -0.2857 0.2857 0.1250  plane waves:    5677
 k-point  34 :  -0.1429 0.2857 0.1250  plane waves:    5670
 k-point  35 :   0.4286 0.4286 0.1250  plane waves:    5666
 k-point  36 :  -0.4286 0.4286 0.1250  plane waves:    5665
 k-point  37 :  -0.2857 0.4286 0.1250  plane waves:    5672
 k-point  38 :  -0.1429 0.4286 0.1250  plane waves:    5669
 k-point  39 :  -0.4286-0.4286 0.1250  plane waves:    5662
 k-point  40 :  -0.2857-0.4286 0.1250  plane waves:    5670
 k-point  41 :  -0.1429-0.4286 0.1250  plane waves:    5667
 k-point  42 :  -0.2857-0.2857 0.1250  plane waves:    5671
 k-point  43 :  -0.1429-0.2857 0.1250  plane waves:    5681
 k-point  44 :  -0.1429-0.1429 0.1250  plane waves:    5740
 k-point  45 :   0.0000-0.0000 0.2500  plane waves:    5667
 k-point  46 :   0.1429-0.0000 0.2500  plane waves:    5671
 k-point  47 :   0.2857 0.0000 0.2500  plane waves:    5676
 k-point  48 :   0.4286-0.0000 0.2500  plane waves:    5674
 k-point  49 :  -0.4286-0.0000 0.2500  plane waves:    5670
 k-point  50 :  -0.2857-0.0000 0.2500  plane waves:    5681
 k-point  51 :  -0.1429-0.0000 0.2500  plane waves:    5677
 k-point  52 :   0.1429 0.1429 0.2500  plane waves:    5686
 k-point  53 :   0.2857 0.1429 0.2500  plane waves:    5677
 k-point  54 :   0.4286 0.1429 0.2500  plane waves:    5678
 k-point  55 :  -0.4286 0.1429 0.2500  plane waves:    5671
 k-point  56 :  -0.2857 0.1429 0.2500  plane waves:    5667
 k-point  57 :  -0.1429 0.1429 0.2500  plane waves:    5681
 k-point  58 :   0.2857 0.2857 0.2500  plane waves:    5677
 k-point  59 :   0.4286 0.2857 0.2500  plane waves:    5674
 k-point  60 :  -0.4286 0.2857 0.2500  plane waves:    5671
[...]
 k-point 102 :   0.1429-0.0000 0.5000  plane waves:    5669
 k-point 103 :   0.2857-0.0000 0.5000  plane waves:    5670
 k-point 104 :   0.4286-0.0000 0.5000  plane waves:    5670
 k-point 105 :   0.1429 0.1429 0.5000  plane waves:    5674
 k-point 106 :   0.2857 0.1429 0.5000  plane waves:    5676
 k-point 107 :   0.4286 0.1429 0.5000  plane waves:    5666
 k-point 108 :  -0.4286 0.1429 0.5000  plane waves:    5658
 k-point 109 :  -0.2857 0.1429 0.5000  plane waves:    5666
 k-point 110 :  -0.1429 0.1429 0.5000  plane waves:    5644
 k-point 111 :   0.2857 0.2857 0.5000  plane waves:    5676
 k-point 112 :   0.4286 0.2857 0.5000  plane waves:    5664
 k-point 113 :  -0.4286 0.2857 0.5000  plane waves:    5661
 k-point 114 :  -0.2857 0.2857 0.5000  plane waves:    5644
 k-point 115 :   0.4286 0.4286 0.5000  plane waves:    5650
 k-point 116 :  -0.4286 0.4286 0.5000  plane waves:    5640

 maximum and minimum number of plane-waves per node :      2897     2787

 maximum number of plane-waves:      5740
 maximum index in each direction:
   IXMAX=   12   IYMAX=   12   IZMAX=   12
   IXMIN=  -12   IYMIN=  -12   IZMIN=  -12

 parallel 3D FFT for wavefunctions:
    minimum data exchange during FFTs selected (reduces bandwidth)
 parallel 3D FFT for charge:
    minimum data exchange during FFTs selected (reduces bandwidth)

 Broyden mixing: mesh for mixing (old mesh)
   NGX = 25   NGY = 25   NGZ = 25
  (NGX  =100   NGY  =100   NGZ  =100)
  gives a total of  15625 points

 initial charge density was supplied:
 charge density of overlapping atoms calculated
 number of electron      78.0000000 magnetization
 keeping initial charge density in first step

 Maximum index for augmentation-charges        20920 (set IRDMAX)

 First call to EWALD:  gamma=   0.320
 Maximum number of real-space cells 3x 3x 3
 Maximum number of reciprocal cells 3x 3x 3

--------------------------------------- Iteration      1(   1)  ---------------------------------------

 eigenvalue-minimisations  : 12336
 total energy-change (2. order) : 0.7095619E+03  (-0.5106626E+04)
 number of electron      78.0000000 magnetization
 augmentation part       78.0000000 magnetization

 Free energy of the ion-electron system (eV)
  alpha Z        PSCENC =       278.09389321
  Ewald energy   TEWEN  =     -5232.40174957
  -Hartree energ DENC   =     -2552.06957200
  -exchange      EXHF   =         0.00000000
  -V(xc)+E(xc)   XCENC  =       305.74144883
  PAW double counting   =      6361.18088108    -6305.13563559
  entropy T*S    EENTRO =        -0.00062125
  eigenvalues    EBANDS =      -149.58229305
  atomic energy  EATOM  =      8003.73552278
  free energy    TOTEN  =       709.56187445 eV

  energy without entropy =      709.56249570  energy(sigma->0) =      709.56218507

[...]

 eigenvalue-minimisations  : 12768
 total energy-change (2. order) :-0.8405069E+03  (-0.8203514E+03)
 number of electron      78.0000000 magnetization
 augmentation part       78.0000000 magnetization

[...]

 eigenvalue-minimisations  :     0
 total energy-change (2. order) :-0.2424713E-08  ( 0.7897027E-08)
 number of electron      78.0000000 magnetization
 augmentation part        8.8857099 magnetization

[...]

 eigenvalue-minimisations  :     0
 total energy-change (2. order) :-0.4067260E-08  (-0.6216484E-09)
 number of electron      78.0000000 magnetization
 augmentation part        8.8857109 magnetization

[...]

--------------------------------------- Iteration      1(  39)  ---------------------------------------

 eigenvalue-minimisations  :     0
 total energy-change (2. order) : 0.3319656E-09  (-0.4494187E-10)
 number of electron      78.0000000 magnetization
 augmentation part        8.8857108 magnetization

 Free energy of the ion-electron system (eV)
  alpha Z        PSCENC =       278.09389321
  Ewald energy   TEWEN  =     -5232.40174957
  -Hartree energ DENC   =     -2547.84453485
  -exchange      EXHF   =         0.00000000
  -V(xc)+E(xc)   XCENC  =       316.13005008
  PAW double counting   =     12532.25151508   -12487.81954764
  entropy T*S    EENTRO =        -0.00136320
  eigenvalues    EBANDS =      -999.11603965
  atomic energy  EATOM  =      8003.73552278
  free energy    TOTEN  =      -136.97225375 eV

  energy without entropy =     -136.97089056  energy(sigma->0) =     -136.97157216

  average scaling for gradient   0.7857

 average (electrostatic) potential at core
  the test charge radii are     0.7672  1.0818  0.9892
  (the norm of the test charge is              1.0000)
       1 -27.8540       2 -27.8540       3 -78.8030       4 -78.6658       5 -78.8030
       6 -78.9644       7 -84.9044       8 -84.8814       9 -84.9044      10 -84.8814

 E-fermi :   7.1595     XC(G=0): -11.2550     alpha+bet :-14.3018

 Fermi energy:         7.1594846209

 k-point     1 :       0.0000    0.0000    0.0000
  band No.  band energies     occupation
      1     -55.1843      2.00000
      2     -55.0813      2.00000
      3     -55.0771      2.00000
      4     -54.9842      2.00000
      5     -29.2273      2.00000
      6     -29.1813      2.00000
      7     -29.0840      2.00000
      8     -29.0635      2.00000
      9     -28.7210      2.00000
     10     -28.6701      2.00000
     11     -28.6280      2.00000
     12     -28.6102      2.00000
     13     -28.5764      2.00000
     14     -28.4463      2.00000
     15     -28.4444      2.00000
     16     -28.2698      2.00000
     17      -4.0750      2.00000
     18      -2.1080      2.00000
     19       0.3510      2.00000
     20       0.5057      2.00000
     21       0.6715      2.00000
     22       0.8278      2.00000
     23       0.8608      2.00000
     24       1.7649      2.00000
     25       1.9866      2.00000
     26       1.9948      2.00000
     27       2.4557      2.00000
     28       3.0025      2.00000
     29       3.0593      2.00000
     30       3.8038      2.00000
     31       4.6797      2.00000
     32       5.0303      2.00000
     33       5.0423      2.00000
     34       5.3639      2.00000
     35       5.3833      2.00000
     36       6.0618      2.00000
     37       6.6546      2.00000
     38       7.5093      0.00000
     39       7.6257      0.00000
     40       7.8027      0.00000
     41       7.8771      0.00000
     42       8.0906      0.00000
     43       8.9502      0.00000
     44       9.2945      0.00000
     45       9.6802      0.00000
     46       9.7220      0.00000
     47      10.0465      0.00000
     48      10.3532      0.00000

[...]

 k-point   116 :      -0.4286    0.4286    0.5000
  band No.  band energies     occupation
      1     -55.1839      2.00000
      2     -55.0813      2.00000
      3     -55.0771      2.00000
      4     -54.9846      2.00000
      5     -29.2209      2.00000
      6     -29.1748      2.00000
      7     -29.0800      2.00000
      8     -29.0579      2.00000
      9     -28.7265      2.00000
     10     -28.6765      2.00000
     11     -28.6346      2.00000
     12     -28.6161      2.00000
     13     -28.5766      2.00000
     14     -28.4456      2.00000
     15     -28.4448      2.00000
     16     -28.2701      2.00000
     17      -3.6459      2.00000
     18      -1.9894      2.00000
     19      -0.6016      2.00000
     20      -0.0126      2.00000
     21       0.4792      2.00000
     22       0.5108      2.00000
     23       0.9341      2.00000
     24       1.3520      2.00000
     25       2.5209      2.00000
     26       3.0602      2.00000
     27       3.1114      2.00000
     28       3.1419      2.00000
     29       3.1909      2.00000
     30       3.6263      2.00000
     31       3.9335      2.00000
     32       4.0846      2.00000
     33       5.9122      2.00000
     34       5.9212      2.00000
     35       6.1199      2.00000
     36       6.6907      2.00000
     37       6.8035      2.00000
     38       7.1076      1.99976
     39       7.3186      0.00000
     40       7.7981      0.00000
     41       7.8663      0.00000
     42       8.1291      0.00000
     43       8.1754      0.00000
     44       8.2856      0.00000
     45       8.5360      0.00000
     46       8.5869      0.00000
     47       9.7316      0.00000
     48      10.1406      0.00000

 soft charge-density along one line, spin component           1
         0         1         2         3         4         5         6         7         8         9
 total charge-density along one line

------------------------ aborting loop because EDIFF is reached ----------------------------------------

  FREE ENERGIE OF THE ION-ELECTRON SYSTEM (eV)
  free  energy   TOTEN  =      -136.97225375 eV

  energy  without entropy=     -136.97089056  energy(sigma->0) =     -136.97157216

 writing wavefunctions