 vasp.6.2.0 18Jan21 (build Jan 05 2022 15:41:44) complex

 executed on             LinuxIFC date 2025.05.07  19:42:45

 INCAR:
   SYSTEM = routine with relax: pwdword
   ICHARG = 2
   NPAR = 6
   KPAR = 2
   NCORE = 2
   ADDGRID = T
   PREC = Acc
   ENCUT = 600
   METAGGA = R2SCAN
   LASPH = .TRUE.
   LMIXTAU = .FALSE.
   ALGO = A
   EDIFF = 1E-9
   NELM = 100
   NELMIN = 6
   IALGO = 38
   LREAL = F
   NSW = 0
   ISIF = -1
   ISMEAR = 0
   SIGMA = 0.02
   SYMPREC = 1E-4

 POTCAR:    PAW_PBE B 06Sep2000
 POTCAR:    PAW_PBE Mo_sv 02Feb2006
 POTCAR:    PAW_PBE Si 05Jan2001
|           W    W    AA    RRRRR   N    N  II  N    N   GGGG   !!!           |
|           W    W   A  A   R    R  NN   N  II  NN   N  G    G  !!!           |
|           W    W  A    A  R    R  N N  N  II  N N  N  G       !!!           |
|           W WW W  AAAAAA  RRRRR   N  N N  II  N  N N  G  GGG   !            |
|           WW  WW  A    A  R   R   N   NN  II  N   NN  G    G                |
|           W    W  A    A  R    R  N    N  II  N    N   GGGG   !!!           |
|     For optimal performance we recommend to set                             |
|       NCORE = 2 up to number-of-cores-per-socket                            |
|     This setting can greatly improve the performance of VASP for DFT.       |
|     The default, NCORE=1 might be grossly inefficient on modern             |
|     multi-core architectures or massively parallel machines. Do your        |
|     Unfortunately you need to use the default for GW and RPA                |
|     calculations (for HF NCORE is supported but not extensively tested      |
|     yet).                                                                   |

 POTCAR:    PAW_PBE B 06Sep2000
   VRHFIN =B: s2p1

   TITEL  = PAW_PBE B 06Sep2000
   POMASS =   10.811; ZVAL   =    3.000    mass and valenz
   ENMAX  =  318.614; ENMIN  =  238.960 eV

 POTCAR:    PAW_PBE Mo_sv 02Feb2006
   VRHFIN =Mo: 4p5s4d

   TITEL  = PAW_PBE Mo_sv 02Feb2006
   POMASS =   95.940; ZVAL   =   14.000    mass and valenz
   ENMAX  =  242.676; ENMIN  =  182.007 eV

 POTCAR:    PAW_PBE Si 05Jan2001
   VRHFIN =Si: s2p2

   TITEL  = PAW_PBE Si 05Jan2001
   POMASS =   28.085; ZVAL   =    4.000    mass and valenz
   ENMAX  =  245.345; ENMIN  =  184.009 eV

  PAW_PBE B 06Sep2000                   :
  PAW_PBE Mo_sv 02Feb2006               :
  PAW_PBE Si 05Jan2001                  :

 POSCAR: EA192
  positions in direct lattice

 METAGGA = R2SCA    LMAXTAU =  6    LMIXTAU =  F

 ion  position               nearest neighbor table
   1  0.250  0.250  0.000-   3 2.40   6 2.40
   2  0.750  0.750  0.000-   3 2.40   6 2.40
   3  0.000  0.000  0.000-   9 2.32  10 2.32   7 2.32   8 2.32   1 2.40   2 2.40   4 3.28   5 3.28
                             5 3.28   4 3.28
   4  0.500  0.000  0.500-   9 2.32  10 2.32   7 2.33   8 2.33   6 3.28   3 3.28   6 3.28   3 3.28

   5  0.000  0.500  0.500-   7 2.32   8 2.32   9 2.33  10 2.33   3 3.28   6 3.28   3 3.28   6 3.28

   6  0.500  0.500  0.000-  10 2.32   9 2.32   7 2.32   8 2.32   1 2.40   2 2.40   4 3.28   5 3.28
                             4 3.28   5 3.28
   7  0.751  0.251  0.001-   5 2.32   3 2.32   6 2.32   4 2.33
   8  0.249  0.749  0.999-   5 2.32   3 2.32   6 2.32   4 2.33
   9  0.251  0.249  0.500-   4 2.32   6 2.32   3 2.32   5 2.33
  10  0.749  0.751  0.500-   4 2.32   3 2.32   6 2.32   5 2.33

  LATTYP: Found a body centered tetragonal cell.
 ALAT       =     6.5673150687
 C/A-ratio  =     1.4619888830

  Lattice vectors:

 A1 = (   5.7188608934,   0.0000000000,  -3.4505181574)
 A2 = (  -1.8228526192,   5.4205699190,  -3.4505181574)
 A3 = (   0.0000000000,   0.0000000000,   6.6791800000)

Analysis of symmetry for initial positions (statically):
 Subroutine PRICEL returns:
 Original cell was already a primitive cell.

 Routine SETGRP: Setting up the symmetry group for a
 body centered tetragonal supercell.

 Subroutine GETGRP returns: Found 16 space group operations
 (whereof  8 operations were pure point group operations)
 out of a pool of 16 trial point group operations.

The static configuration has the point symmetry C_4h.
 The point group associated with its full space group is D_4h.

Analysis of symmetry for dynamics (positions and initial velocities):
 Subroutine PRICEL returns:
 Original cell was already a primitive cell.

 Routine SETGRP: Setting up the symmetry group for a
 body centered tetragonal supercell.

 Subroutine GETGRP returns: Found 16 space group operations
 (whereof  8 operations were pure point group operations)
 out of a pool of 16 trial point group operations.

The dynamic configuration has the point symmetry C_4h.
 The point group associated with its full space group is D_4h.

 Subroutine INISYM returns: Found 16 space group operations
 (whereof  8 operations are pure point group operations),
 and found     1 'primitive' translations

                                     Primitive cell

  volume of cell :     207.0511

  direct lattice vectors                    reciprocal lattice vectors
     5.718860893  0.000000000 -3.450518157     0.174859997  0.058802674  0.000000000
    -1.822852619  5.420569919 -3.450518157     0.000000000  0.184482446  0.000000000
     0.000000000  0.000000000  6.679180000     0.090334082  0.125683052  0.149718977

  length of vectors
     6.679180000  6.679180000  6.679180000     0.184482446  0.184482446  0.215342165

  position of ions in fractional coordinates (direct lattice)
     0.250000000  0.250000000  1.000000000
     0.750000000  0.750000000  1.000000000
     0.000000000  0.000000000  0.000000000
     0.500000000  0.000000000  0.500000000
     0.000000000  0.500000000  0.500000000
     0.500000000  0.500000000  1.000000000
     0.750520000  0.250520000  0.001040000
     0.249480000  0.749480000  0.998960000
     0.250520000  0.249480000  0.500000000
     0.749480000  0.750520000  0.500000000

  ion indices of the primitive-cell ions
   primitive index   ion index
                 1           1
                 2           2
                 3           3
                 4           4
                 5           5
                 6           6
                 7           7
                 8           8
                 9           9
                10          10

 KPOINTS: EA

Automatic generation of k-mesh.
 Grid dimensions read from file:
 generate k-points for:    7    7    8

 Generating k-lattice:

  Cartesian coordinates                     Fractional coordinates (reciprocal lattice)
     0.024980000  0.008400382  0.000000000     0.142857143  0.000000000  0.000000000
     0.000000000  0.026354635  0.000000000     0.000000000  0.142857143  0.000000000
     0.011291760  0.015710381  0.018714872    -0.000000000  0.000000000  0.125000000

  Length of vectors
     0.026354635  0.026354635  0.026917771

  Shift w.r.t. Gamma in fractional coordinates (k-lattice)
     0.000000000  0.000000000  0.000000000

 WARNING: IBZKPT: internal override: KBLOWUP is changed to .FALSE.
      ... skipping the blow-up phase ...

 Subroutine IBZKPT returns following result:

 Found    116 irreducible k-points:

 Following reciprocal coordinates:
            Coordinates               Weight
  0.000000  0.000000  0.000000      1.000000
  0.142857  0.000000  0.000000      4.000000
  0.285714  0.000000  0.000000      4.000000
  0.428571  0.000000  0.000000      4.000000
  0.142857  0.142857  0.000000      2.000000
  0.285714  0.142857  0.000000      4.000000
  0.428571  0.142857  0.000000      4.000000
 -0.428571  0.142857  0.000000      4.000000
 -0.285714  0.142857  0.000000      4.000000
 -0.142857  0.142857  0.000000      2.000000
  0.285714  0.285714  0.000000      2.000000
  0.428571  0.285714  0.000000      4.000000
 -0.428571  0.285714  0.000000      4.000000
 -0.285714  0.285714  0.000000      2.000000
  0.428571  0.428571  0.000000      2.000000
 -0.428571  0.428571  0.000000      2.000000
  0.000000 -0.000000  0.125000      2.000000
  0.142857  0.000000  0.125000      4.000000
  0.285714  0.000000  0.125000      4.000000
  0.428571 -0.000000  0.125000      4.000000
 -0.428571 -0.000000  0.125000      4.000000
 -0.285714 -0.000000  0.125000      4.000000
 -0.142857  0.000000  0.125000      4.000000
  0.142857  0.142857  0.125000      2.000000
  0.285714  0.142857  0.125000      4.000000
  0.428571  0.142857  0.125000      4.000000
 -0.428571  0.142857  0.125000      4.000000
 -0.285714  0.142857  0.125000      4.000000
 -0.142857  0.142857  0.125000      4.000000
  0.285714  0.285714  0.125000      2.000000
  0.428571  0.285714  0.125000      4.000000
 -0.428571  0.285714  0.125000      4.000000
 -0.285714  0.285714  0.125000      4.000000
 -0.142857  0.285714  0.125000      4.000000
  0.428571  0.428571  0.125000      2.000000
 -0.428571  0.428571  0.125000      4.000000
 -0.285714  0.428571  0.125000      4.000000
 -0.142857  0.428571  0.125000      4.000000
 -0.428571 -0.428571  0.125000      2.000000
 -0.285714 -0.428571  0.125000      4.000000
 -0.142857 -0.428571  0.125000      4.000000
 -0.285714 -0.285714  0.125000      2.000000
 -0.142857 -0.285714  0.125000      4.000000
 -0.142857 -0.142857  0.125000      2.000000
  0.000000 -0.000000  0.250000      2.000000
  0.142857  0.000000  0.250000      4.000000
  0.285714  0.000000  0.250000      4.000000
  0.428571 -0.000000  0.250000      4.000000
 -0.428571  0.000000  0.250000      4.000000
 -0.285714 -0.000000  0.250000      4.000000
 -0.142857  0.000000  0.250000      4.000000
  0.142857  0.142857  0.250000      2.000000
  0.285714  0.142857  0.250000      4.000000
  0.428571  0.142857  0.250000      4.000000
 -0.428571  0.142857  0.250000      4.000000
 -0.285714  0.142857  0.250000      4.000000
 -0.142857  0.142857  0.250000      4.000000
  0.285714  0.285714  0.250000      2.000000
  0.428571  0.285714  0.250000      4.000000
 -0.428571  0.285714  0.250000      4.000000
[...]
  0.142857  0.000000  0.500000      4.000000
  0.285714 -0.000000  0.500000      4.000000
  0.428571  0.000000  0.500000      4.000000
  0.142857  0.142857  0.500000      2.000000
  0.285714  0.142857  0.500000      4.000000
  0.428571  0.142857  0.500000      4.000000
 -0.428571  0.142857  0.500000      4.000000
 -0.285714  0.142857  0.500000      4.000000
 -0.142857  0.142857  0.500000      2.000000
  0.285714  0.285714  0.500000      2.000000
  0.428571  0.285714  0.500000      4.000000
 -0.428571  0.285714  0.500000      4.000000
 -0.285714  0.285714  0.500000      2.000000
  0.428571  0.428571  0.500000      2.000000
 -0.428571  0.428571  0.500000      2.000000

 Following cartesian coordinates:
            Coordinates               Weight
  0.000000  0.000000  0.000000      1.000000
  0.024980  0.008400  0.000000      4.000000
  0.049960  0.016801  0.000000      4.000000
  0.074940  0.025201  0.000000      4.000000
  0.024980  0.034755  0.000000      2.000000
  0.049960  0.043155  0.000000      4.000000
  0.074940  0.051556  0.000000      4.000000
 -0.074940  0.001153  0.000000      4.000000
 -0.049960  0.009554  0.000000      4.000000
 -0.024980  0.017954  0.000000      2.000000
  0.049960  0.069510  0.000000      2.000000
  0.074940  0.077910  0.000000      4.000000
[...]
  -0.14285714  0.14285714  0.00000000       0.005
   0.28571429  0.28571429  0.00000000       0.005
   0.42857143  0.28571429  0.00000000       0.010
  -0.42857143  0.28571429  0.00000000       0.010
  -0.28571429  0.28571429  0.00000000       0.005
   0.42857143  0.42857143  0.00000000       0.005
  -0.42857143  0.42857143  0.00000000       0.005
   0.00000000 -0.00000000  0.12500000       0.005
   0.14285714  0.00000000  0.12500000       0.010
   0.28571429  0.00000000  0.12500000       0.010
   0.42857143 -0.00000000  0.12500000       0.010
  -0.42857143 -0.00000000  0.12500000       0.010
  -0.28571429 -0.00000000  0.12500000       0.010
  -0.14285714  0.00000000  0.12500000       0.010
   0.14285714  0.14285714  0.12500000       0.005
   0.28571429  0.14285714  0.12500000       0.010
   0.42857143  0.14285714  0.12500000       0.010
  -0.42857143  0.14285714  0.12500000       0.010
  -0.28571429  0.14285714  0.12500000       0.010
  -0.14285714  0.14285714  0.12500000       0.010
   0.28571429  0.28571429  0.12500000       0.005
   0.42857143  0.28571429  0.12500000       0.010
  -0.42857143  0.28571429  0.12500000       0.010
  -0.28571429  0.28571429  0.12500000       0.010
  -0.14285714  0.28571429  0.12500000       0.010
   0.42857143  0.42857143  0.12500000       0.005
  -0.42857143  0.42857143  0.12500000       0.010
  -0.28571429  0.42857143  0.12500000       0.010
  -0.14285714  0.42857143  0.12500000       0.010
  -0.42857143 -0.42857143  0.12500000       0.005
  -0.28571429 -0.42857143  0.12500000       0.010
  -0.14285714 -0.42857143  0.12500000       0.010
  -0.28571429 -0.28571429  0.12500000       0.005
  -0.14285714 -0.28571429  0.12500000       0.010
  -0.14285714 -0.14285714  0.12500000       0.005
   0.00000000 -0.00000000  0.25000000       0.005
   0.14285714  0.00000000  0.25000000       0.010
   0.28571429  0.00000000  0.25000000       0.010
   0.42857143 -0.00000000  0.25000000       0.010
  -0.42857143  0.00000000  0.25000000       0.010
  -0.28571429 -0.00000000  0.25000000       0.010
  -0.14285714  0.00000000  0.25000000       0.010
   0.14285714  0.14285714  0.25000000       0.005
   0.28571429  0.14285714  0.25000000       0.010
   0.42857143  0.14285714  0.25000000       0.010
  -0.42857143  0.14285714  0.25000000       0.010
  -0.28571429  0.14285714  0.25000000       0.010
  -0.14285714  0.14285714  0.25000000       0.010
   0.28571429  0.28571429  0.25000000       0.005
   0.42857143  0.28571429  0.25000000       0.010
  -0.42857143  0.28571429  0.25000000       0.010
[...]
   0.14285714  0.00000000  0.50000000       0.010
   0.28571429 -0.00000000  0.50000000       0.010
   0.42857143  0.00000000  0.50000000       0.010
   0.14285714  0.14285714  0.50000000       0.005
   0.28571429  0.14285714  0.50000000       0.010
   0.42857143  0.14285714  0.50000000       0.010
  -0.42857143  0.14285714  0.50000000       0.010
  -0.28571429  0.14285714  0.50000000       0.010
  -0.14285714  0.14285714  0.50000000       0.005
   0.28571429  0.28571429  0.50000000       0.005
   0.42857143  0.28571429  0.50000000       0.010
  -0.42857143  0.28571429  0.50000000       0.010
  -0.28571429  0.28571429  0.50000000       0.005
   0.42857143  0.42857143  0.50000000       0.005
  -0.42857143  0.42857143  0.50000000       0.005

 position of ions in fractional coordinates (direct lattice)
   0.25000000  0.25000000  0.00000000
   0.75000000  0.75000000  0.00000000
   0.00000000  0.00000000  0.00000000
   0.50000000  0.00000000  0.50000000
   0.00000000  0.50000000  0.50000000
   0.50000000  0.50000000  0.00000000
   0.75052000  0.25052000  0.00104000
   0.24948000  0.74948000  0.99896000
   0.25052000  0.24948000  0.50000000
   0.74948000  0.75052000  0.50000000

 position of ions in cartesian coordinates  (Angst):
   0.97400207  1.35514248 -1.72525908
   2.92200621  4.06542744 -5.17577724
   0.00000000  0.00000000  0.00000000
   2.85943045  0.00000000  1.61433092
  -0.91142631  2.71028496  1.61433092
   1.94800414  2.71028496 -3.45051816
   3.83545844  1.35796118 -3.44716035
   0.06054983  4.06260874  3.22530403
   0.97792376  1.35232378  1.61433092
   2.91808451  4.06824614 -1.83618724

 k-point   1 :   0.0000 0.0000 0.0000  plane waves:    6959
 k-point   2 :   0.1429 0.0000 0.0000  plane waves:    6905
 k-point   3 :   0.2857 0.0000 0.0000  plane waves:    6905
 k-point   4 :   0.4286 0.0000 0.0000  plane waves:    6902
 k-point   5 :   0.1429 0.1429 0.0000  plane waves:    6908
 k-point   6 :   0.2857 0.1429 0.0000  plane waves:    6914
 k-point   7 :   0.4286 0.1429 0.0000  plane waves:    6898
 k-point   8 :  -0.4286 0.1429 0.0000  plane waves:    6917
 k-point   9 :  -0.2857 0.1429 0.0000  plane waves:    6917
 k-point  10 :  -0.1429 0.1429 0.0000  plane waves:    6903
 k-point  11 :   0.2857 0.2857 0.0000  plane waves:    6906
 k-point  12 :   0.4286 0.2857 0.0000  plane waves:    6917
 k-point  13 :  -0.4286 0.2857 0.0000  plane waves:    6910
 k-point  14 :  -0.2857 0.2857 0.0000  plane waves:    6910
 k-point  15 :   0.4286 0.4286 0.0000  plane waves:    6930
 k-point  16 :  -0.4286 0.4286 0.0000  plane waves:    6932
 k-point  17 :   0.0000-0.0000 0.1250  plane waves:    6915
 k-point  18 :   0.1429 0.0000 0.1250  plane waves:    6912
 k-point  19 :   0.2857 0.0000 0.1250  plane waves:    6915
 k-point  20 :   0.4286-0.0000 0.1250  plane waves:    6905
 k-point  21 :  -0.4286-0.0000 0.1250  plane waves:    6909
 k-point  22 :  -0.2857-0.0000 0.1250  plane waves:    6911
 k-point  23 :  -0.1429 0.0000 0.1250  plane waves:    6910
 k-point  24 :   0.1429 0.1429 0.1250  plane waves:    6933
 k-point  25 :   0.2857 0.1429 0.1250  plane waves:    6926
 k-point  26 :   0.4286 0.1429 0.1250  plane waves:    6923
 k-point  27 :  -0.4286 0.1429 0.1250  plane waves:    6929
 k-point  28 :  -0.2857 0.1429 0.1250  plane waves:    6913
 k-point  29 :  -0.1429 0.1429 0.1250  plane waves:    6917
 k-point  30 :   0.2857 0.2857 0.1250  plane waves:    6905
 k-point  31 :   0.4286 0.2857 0.1250  plane waves:    6923
 k-point  32 :  -0.4286 0.2857 0.1250  plane waves:    6909
 k-point  33 :  -0.2857 0.2857 0.1250  plane waves:    6905
 k-point  34 :  -0.1429 0.2857 0.1250  plane waves:    6903
 k-point  35 :   0.4286 0.4286 0.1250  plane waves:    6924
 k-point  36 :  -0.4286 0.4286 0.1250  plane waves:    6917
 k-point  37 :  -0.2857 0.4286 0.1250  plane waves:    6913
 k-point  38 :  -0.1429 0.4286 0.1250  plane waves:    6909
 k-point  39 :  -0.4286-0.4286 0.1250  plane waves:    6894
 k-point  40 :  -0.2857-0.4286 0.1250  plane waves:    6902
 k-point  41 :  -0.1429-0.4286 0.1250  plane waves:    6908
 k-point  42 :  -0.2857-0.2857 0.1250  plane waves:    6906
 k-point  43 :  -0.1429-0.2857 0.1250  plane waves:    6910
 k-point  44 :  -0.1429-0.1429 0.1250  plane waves:    6910
 k-point  45 :   0.0000-0.0000 0.2500  plane waves:    6919
 k-point  46 :   0.1429 0.0000 0.2500  plane waves:    6918
 k-point  47 :   0.2857 0.0000 0.2500  plane waves:    6914
 k-point  48 :   0.4286-0.0000 0.2500  plane waves:    6911
 k-point  49 :  -0.4286 0.0000 0.2500  plane waves:    6909
 k-point  50 :  -0.2857-0.0000 0.2500  plane waves:    6903
 k-point  51 :  -0.1429 0.0000 0.2500  plane waves:    6910
 k-point  52 :   0.1429 0.1429 0.2500  plane waves:    6921
 k-point  53 :   0.2857 0.1429 0.2500  plane waves:    6917
 k-point  54 :   0.4286 0.1429 0.2500  plane waves:    6915
 k-point  55 :  -0.4286 0.1429 0.2500  plane waves:    6918
 k-point  56 :  -0.2857 0.1429 0.2500  plane waves:    6904
 k-point  57 :  -0.1429 0.1429 0.2500  plane waves:    6899
 k-point  58 :   0.2857 0.2857 0.2500  plane waves:    6913
 k-point  59 :   0.4286 0.2857 0.2500  plane waves:    6916
 k-point  60 :  -0.4286 0.2857 0.2500  plane waves:    6912
[...]
 k-point 102 :   0.1429 0.0000 0.5000  plane waves:    6922
 k-point 103 :   0.2857-0.0000 0.5000  plane waves:    6914
 k-point 104 :   0.4286 0.0000 0.5000  plane waves:    6904
 k-point 105 :   0.1429 0.1429 0.5000  plane waves:    6920
 k-point 106 :   0.2857 0.1429 0.5000  plane waves:    6925
 k-point 107 :   0.4286 0.1429 0.5000  plane waves:    6906
 k-point 108 :  -0.4286 0.1429 0.5000  plane waves:    6894
 k-point 109 :  -0.2857 0.1429 0.5000  plane waves:    6904
 k-point 110 :  -0.1429 0.1429 0.5000  plane waves:    6922
 k-point 111 :   0.2857 0.2857 0.5000  plane waves:    6905
 k-point 112 :   0.4286 0.2857 0.5000  plane waves:    6897
 k-point 113 :  -0.4286 0.2857 0.5000  plane waves:    6903
 k-point 114 :  -0.2857 0.2857 0.5000  plane waves:    6886
 k-point 115 :   0.4286 0.4286 0.5000  plane waves:    6890
 k-point 116 :  -0.4286 0.4286 0.5000  plane waves:    6894

 maximum and minimum number of plane-waves per node :      3508     3416

 maximum number of plane-waves:      6959
 maximum index in each direction:
   IXMAX=   13   IYMAX=   13   IZMAX=   13
   IXMIN=  -13   IYMIN=  -13   IZMIN=  -13

 parallel 3D FFT for wavefunctions:
    minimum data exchange during FFTs selected (reduces bandwidth)
 parallel 3D FFT for charge:
    minimum data exchange during FFTs selected (reduces bandwidth)

 Broyden mixing: mesh for mixing (old mesh)
   NGX = 27   NGY = 27   NGZ = 27
  (NGX  =108   NGY  =108   NGZ  =108)
  gives a total of  19683 points

 initial charge density was supplied:
 charge density of overlapping atoms calculated
 number of electron      78.0000000 magnetization
 keeping initial charge density in first step

 Maximum index for augmentation-charges        21665 (set IRDMAX)

 First call to EWALD:  gamma=   0.300
 Maximum number of real-space cells 3x 3x 3
 Maximum number of reciprocal cells 3x 3x 3

--------------------------------------- Iteration      1(   1)  ---------------------------------------

 eigenvalue-minimisations  : 12528
 total energy-change (2. order) : 0.6149075E+03  (-0.4848405E+04)
 number of electron      78.0000000 magnetization
 augmentation part       78.0000000 magnetization

 Free energy of the ion-electron system (eV)
  alpha Z        PSCENC =       228.31381877
  Ewald energy   TEWEN  =     -4902.83826768
  -Hartree energ DENC   =     -2723.49747628
  -exchange      EXHF   =         0.00000000
  -V(xc)+E(xc)   XCENC  =       299.36628667
  PAW double counting   =      6361.18088108    -6305.13563559
  entropy T*S    EENTRO =        -0.00043979
  eigenvalues    EBANDS =      -346.21721930
  atomic energy  EATOM  =      8003.73552278
  free energy    TOTEN  =       614.90747065 eV

  energy without entropy =      614.90791044  energy(sigma->0) =      614.90769055

[...]

 eigenvalue-minimisations  : 12720
 total energy-change (2. order) :-0.7510539E+03  (-0.7329174E+03)
 number of electron      78.0000000 magnetization
 augmentation part       78.0000000 magnetization

[...]

 eigenvalue-minimisations  :     0
 total energy-change (2. order) : 0.3513610E+02  (-0.4338299E+01)
 number of electron      78.0000000 magnetization
 augmentation part        8.7131429 magnetization

[...]

 eigenvalue-minimisations  :     0
 total energy-change (2. order) :-0.2567322E-07  ( 0.8894190E-07)
 number of electron      78.0000000 magnetization
 augmentation part        8.8237422 magnetization

[...]

 eigenvalue-minimisations  :     0
 total energy-change (2. order) :-0.1820717E-07  ( 0.1842604E-07)
 number of electron      78.0000000 magnetization
 augmentation part        8.8237437 magnetization

[...]

--------------------------------------- Iteration      1(  33)  ---------------------------------------

 eigenvalue-minimisations  :     0
 total energy-change (2. order) :-0.8367351E-10  (-0.3121719E-09)
 number of electron      78.0000000 magnetization
 augmentation part        8.8237439 magnetization

 Free energy of the ion-electron system (eV)
  alpha Z        PSCENC =       228.31381877
  Ewald energy   TEWEN  =     -4902.83826768
  -Hartree energ DENC   =     -2688.13792613
  -exchange      EXHF   =         0.00000000
  -V(xc)+E(xc)   XCENC  =       307.66459091
  PAW double counting   =     10076.85146051   -10031.68701912
  entropy T*S    EENTRO =        -0.00150242
  eigenvalues    EBANDS =     -1135.65449488
  atomic energy  EATOM  =      8003.73552278
  free energy    TOTEN  =      -141.75381727 eV

  energy without entropy =     -141.75231485  energy(sigma->0) =     -141.75306606

  average scaling for gradient   0.9007

 average (electrostatic) potential at core
  the test charge radii are     0.7672  1.0818  0.9892
  (the norm of the test charge is              1.0000)
       1 -29.8923       2 -29.8923       3 -81.2330       4 -81.1361       5 -81.1361
       6 -81.2330       7 -86.8661       8 -86.8661       9 -86.8661      10 -86.8661

 E-fermi :   5.2792     XC(G=0): -10.3227     alpha+bet :-11.7417

 Fermi energy:         5.2791586519

 k-point     1 :       0.0000    0.0000    0.0000
  band No.  band energies     occupation
      1     -57.3302      2.00000
      2     -57.3261      2.00000
      3     -57.2517      2.00000
      4     -57.2493      2.00000
      5     -31.0251      2.00000
      6     -31.0251      2.00000
      7     -30.9837      2.00000
      8     -30.9835      2.00000
      9     -30.7667      2.00000
     10     -30.7665      2.00000
     11     -30.7472      2.00000
     12     -30.7472      2.00000
     13     -30.6189      2.00000
     14     -30.5992      2.00000
     15     -30.5991      2.00000
     16     -30.5784      2.00000
     17      -5.2672      2.00000
     18      -3.3205      2.00000
     19      -1.5726      2.00000
     20      -1.5726      2.00000
     21      -0.9734      2.00000
     22      -0.6555      2.00000
     23      -0.5716      2.00000
     24      -0.0822      2.00000
     25       1.1352      2.00000
     26       1.1352      2.00000
     27       1.5656      2.00000
     28       1.5838      2.00000
     29       1.6736      2.00000
     30       2.4777      2.00000
     31       3.0307      2.00000
     32       3.1832      2.00000
     33       3.1832      2.00000
     34       3.7147      2.00000
     35       3.7148      2.00000
     36       4.2771      2.00000
     37       4.9438      2.00000
     38       5.6090      0.00000
     39       5.6092      0.00000
     40       5.7200      0.00000
     41       5.7200      0.00000
     42       5.9658      0.00000
     43       7.0402      0.00000
     44       7.2441      0.00000
     45       7.2448      0.00000
     46       7.4301      0.00000
     47       7.4713      0.00000
     48       7.5717      0.00000

[...]

 k-point   116 :      -0.4286    0.4286    0.5000
  band No.  band energies     occupation
      1     -57.3301      2.00000
      2     -57.3261      2.00000
      3     -57.2517      2.00000
      4     -57.2495      2.00000
      5     -31.0220      2.00000
      6     -31.0218      2.00000
      7     -30.9816      2.00000
      8     -30.9812      2.00000
      9     -30.7694      2.00000
     10     -30.7689      2.00000
     11     -30.7503      2.00000
     12     -30.7501      2.00000
     13     -30.6194      2.00000
     14     -30.5984      2.00000
     15     -30.5982      2.00000
     16     -30.5796      2.00000
     17      -4.9649      2.00000
     18      -3.2379      2.00000
     19      -2.1599      2.00000
     20      -1.9749      2.00000
     21      -1.4030      2.00000
     22      -0.9223      2.00000
     23      -0.4664      2.00000
     24       0.1436      2.00000
     25       1.5948      2.00000
     26       1.6202      2.00000
     27       1.7047      2.00000
     28       2.0691      2.00000
     29       2.0746      2.00000
     30       2.3491      2.00000
     31       2.8279      2.00000
     32       2.9430      2.00000
     33       3.4489      2.00000
     34       3.6107      2.00000
     35       4.1384      2.00000
     36       4.7802      2.00000
     37       5.0181      2.00000
     38       5.2651      1.67738
     39       5.2788      1.01731
     40       5.6920      0.00000
     41       5.7521      0.00000
     42       5.9953      0.00000
     43       6.0675      0.00000
     44       6.2862      0.00000
     45       6.5609      0.00000
     46       6.5942      0.00000
     47       7.1354      0.00000
     48       7.4233      0.00000

 soft charge-density along one line, spin component           1
         0         1         2         3         4         5         6         7         8         9
 total charge-density along one line

------------------------ aborting loop because EDIFF is reached ----------------------------------------

  FREE ENERGIE OF THE ION-ELECTRON SYSTEM (eV)
  free  energy   TOTEN  =      -141.75381727 eV

  energy  without entropy=     -141.75231485  energy(sigma->0) =     -141.75306606

 writing wavefunctions