 vasp.6.2.0 18Jan21 (build Jan 05 2022 15:41:44) complex

 executed on             LinuxIFC date 2025.05.07  19:06:14

 INCAR:
   SYSTEM = routine with relax: pwdword
   ICHARG = 2
   NPAR = 6
   KPAR = 2
   NCORE = 2
   ADDGRID = T
   PREC = Acc
   ENCUT = 600
   METAGGA = R2SCAN
   LASPH = .TRUE.
   LMIXTAU = .FALSE.
   ALGO = A
   EDIFF = 1E-9
   NELM = 100
   NELMIN = 6
   IALGO = 38
   LREAL = F
   NSW = 0
   ISIF = -1
   ISMEAR = 0
   SIGMA = 0.02
   SYMPREC = 1E-4

 POTCAR:    PAW_PBE B 06Sep2000
 POTCAR:    PAW_PBE Mo_sv 02Feb2006
 POTCAR:    PAW_PBE Si 05Jan2001
|           W    W    AA    RRRRR   N    N  II  N    N   GGGG   !!!           |
|           W    W   A  A   R    R  NN   N  II  NN   N  G    G  !!!           |
|           W    W  A    A  R    R  N N  N  II  N N  N  G       !!!           |
|           W WW W  AAAAAA  RRRRR   N  N N  II  N  N N  G  GGG   !            |
|           WW  WW  A    A  R   R   N   NN  II  N   NN  G    G                |
|           W    W  A    A  R    R  N    N  II  N    N   GGGG   !!!           |
|     For optimal performance we recommend to set                             |
|       NCORE = 2 up to number-of-cores-per-socket                            |
|     This setting can greatly improve the performance of VASP for DFT.       |
|     The default, NCORE=1 might be grossly inefficient on modern             |
|     multi-core architectures or massively parallel machines. Do your        |
|     Unfortunately you need to use the default for GW and RPA                |
|     calculations (for HF NCORE is supported but not extensively tested      |
|     yet).                                                                   |

 POTCAR:    PAW_PBE B 06Sep2000
   VRHFIN =B: s2p1

   TITEL  = PAW_PBE B 06Sep2000
   POMASS =   10.811; ZVAL   =    3.000    mass and valenz
   ENMAX  =  318.614; ENMIN  =  238.960 eV

 POTCAR:    PAW_PBE Mo_sv 02Feb2006
   VRHFIN =Mo: 4p5s4d

   TITEL  = PAW_PBE Mo_sv 02Feb2006
   POMASS =   95.940; ZVAL   =   14.000    mass and valenz
   ENMAX  =  242.676; ENMIN  =  182.007 eV

 POTCAR:    PAW_PBE Si 05Jan2001
   VRHFIN =Si: s2p2

   TITEL  = PAW_PBE Si 05Jan2001
   POMASS =   28.085; ZVAL   =    4.000    mass and valenz
   ENMAX  =  245.345; ENMIN  =  184.009 eV

  PAW_PBE B 06Sep2000                   :
  PAW_PBE Mo_sv 02Feb2006               :
  PAW_PBE Si 05Jan2001                  :

 POSCAR: EA154
  positions in direct lattice

 METAGGA = R2SCA    LMAXTAU =  6    LMIXTAU =  F

 ion  position               nearest neighbor table
   1  0.172  0.672  0.843-   8 1.23   7 2.50   5 2.50  11 2.61   6 2.61
   2  0.828  0.328  0.157-  10 1.23   7 2.50   5 2.50  11 2.61   6 2.61
   3  0.672  0.828  0.500-   7 1.23   8 2.50  10 2.50   9 2.61  12 2.61
   4  0.328  0.172  0.500-   5 1.23  10 2.50   8 2.50   9 2.61  12 2.61
   5  0.199  0.301  0.500-   4 1.23   2 2.50   1 2.50   9 2.55  12 2.55  14 2.74  16 2.74  15 2.74
                            13 2.74   8 3.43  10 3.43  10 3.43   8 3.43
   6  0.500  0.000  0.000-   8 2.55  10 2.55   1 2.61   2 2.61  15 2.68  16 2.68  13 2.68  14 2.68
                             9 3.37   9 3.37  12 3.37  12 3.37
   7  0.801  0.699  0.500-   3 1.23   2 2.50   1 2.50   9 2.55  12 2.55  15 2.74  13 2.74  16 2.74
                            14 2.74   8 3.43  10 3.43   8 3.43  10 3.43
   8  0.301  0.801  0.102-   1 1.23   3 2.50   4 2.50  11 2.55   6 2.55  16 2.74  13 2.74  15 2.74
                            14 2.74   5 3.43   7 3.43   7 3.43   5 3.43
   9  0.000  0.000  0.500-   5 2.55   7 2.55   3 2.61   4 2.61  13 2.68  14 2.68  15 2.68  16 2.68
                             6 3.37   6 3.37  11 3.37  11 3.37
  10  0.699  0.199  0.898-   2 1.23   4 2.50   3 2.50  11 2.55   6 2.55  15 2.74  14 2.74  13 2.74
                            16 2.74   7 3.43   5 3.43   5 3.43   7 3.43
  11  0.000  0.500  0.000-   8 2.55  10 2.55   1 2.61   2 2.61  13 2.68  14 2.68  15 2.68  16 2.68
                            12 3.37  12 3.37   9 3.37   9 3.37
  12  0.500  0.500  0.500-   5 2.55   7 2.55   3 2.61   4 2.61  16 2.68  15 2.68  13 2.68  14 2.68
                            11 3.37  11 3.37   6 3.37   6 3.37
  13  0.373  0.373  0.000-  15 2.46  14 2.54   9 2.68  12 2.68  11 2.68   6 2.68   7 2.74   5 2.74
                             8 2.74  10 2.74
  14  0.627  0.627  0.000-  16 2.46  13 2.54   9 2.68  12 2.68  11 2.68   6 2.68   5 2.74   7 2.74
                            10 2.74   8 2.74
  15  0.127  0.127  0.000-  13 2.46  16 2.54  12 2.68   9 2.68   6 2.68  11 2.68   7 2.74   5 2.74
                            10 2.74   8 2.74
  16  0.873  0.873  0.000-  14 2.46  15 2.54  12 2.68   9 2.68   6 2.68  11 2.68   5 2.74   7 2.74
                             8 2.74  10 2.74

  LATTYP: Found a body centered tetragonal cell.
 ALAT       =     6.7310619962
 C/A-ratio  =     1.4876140301

  Lattice vectors:

 A1 = (   5.8781840575,   0.0000000000,  -3.6285982678)
 A2 = (  -1.8295086442,   5.5862282386,  -3.6285982678)
 A3 = (   0.0000000000,   0.0000000000,   6.9079500000)

Analysis of symmetry for initial positions (statically):
 Subroutine PRICEL returns:
 Original cell was already a primitive cell.

 Routine SETGRP: Setting up the symmetry group for a
 body centered tetragonal supercell.

 Subroutine GETGRP returns: Found 16 space group operations
 (whereof  8 operations were pure point group operations)
 out of a pool of 16 trial point group operations.

The static configuration has the point symmetry C_4h.
 The point group associated with its full space group is D_4h.

Analysis of symmetry for dynamics (positions and initial velocities):
 Subroutine PRICEL returns:
 Original cell was already a primitive cell.

 Routine SETGRP: Setting up the symmetry group for a
 body centered tetragonal supercell.

 Subroutine GETGRP returns: Found 16 space group operations
 (whereof  8 operations were pure point group operations)
 out of a pool of 16 trial point group operations.

The dynamic configuration has the point symmetry C_4h.
 The point group associated with its full space group is D_4h.

 Subroutine INISYM returns: Found 16 space group operations
 (whereof  8 operations are pure point group operations),
 and found     1 'primitive' translations

                                     Primitive cell

  volume of cell :     226.8355

  direct lattice vectors                    reciprocal lattice vectors
     5.878184057  0.000000000 -3.628598268     0.170120566  0.055715061  0.000000000
    -1.829508644  5.586228239 -3.628598268     0.000000000  0.179011662  0.000000000
     0.000000000  0.000000000  6.907950000     0.089360692  0.123296923  0.144760747

  length of vectors
     6.907950000  6.907950000  6.907950000     0.179011662  0.179011662  0.210102685

  position of ions in fractional coordinates (direct lattice)
     0.171730000  0.671730000  0.843470000
     0.828270000  0.328270000  0.156530000
     0.671730000  0.828270000  0.500000000
     0.328270000  0.171730000  0.500000000
     0.199120000  0.300880000  0.500000000
     0.500000000  0.000000000  0.000000000
     0.800880000  0.699120000  0.500000000
     0.300880000  0.800880000  0.101760000
     0.000000000  0.000000000  0.500000000
     0.699120000  0.199120000  0.898240000
     0.000000000  0.500000000  0.000000000
     0.500000000  0.500000000  0.500000000
     0.373010000  0.373010000  0.000000000
     0.626990000  0.626990000  0.000000000
     0.126990000  0.126990000  0.000000000
     0.873010000  0.873010000  0.000000000

  ion indices of the primitive-cell ions
   primitive index   ion index
                 1           1
                 2           2
                 3           3
                 4           4
                 5           5
                 6           6
                 7           7
                 8           8
                 9           9
                10          10
                11          11
                12          12
                13          13
                14          14
                15          15
                16          16

 KPOINTS: EA

Automatic generation of k-mesh.
 Grid dimensions read from file:
 generate k-points for:    6    6    8

 Generating k-lattice:

  Cartesian coordinates                     Fractional coordinates (reciprocal lattice)
     0.028353428  0.009285843  0.000000000     0.166666667  0.000000000  0.000000000
     0.000000000  0.029835277  0.000000000     0.000000000  0.166666667  0.000000000
     0.011170086  0.015412115  0.018095093     0.000000000  0.000000000  0.125000000

  Length of vectors
     0.029835277  0.029835277  0.026262836

  Shift w.r.t. Gamma in fractional coordinates (k-lattice)
     0.000000000  0.000000000  0.000000000

 WARNING: IBZKPT: internal override: KBLOWUP is changed to .FALSE.
      ... skipping the blow-up phase ...

 Subroutine IBZKPT returns following result:

 Found     81 irreducible k-points:

 Following reciprocal coordinates:
            Coordinates               Weight
  0.000000  0.000000  0.000000      1.000000
  0.166667  0.000000  0.000000      4.000000
  0.333333  0.000000  0.000000      4.000000
  0.500000  0.000000  0.000000      4.000000
  0.166667  0.166667  0.000000      2.000000
  0.333333  0.166667  0.000000      8.000000
  0.500000  0.166667  0.000000      8.000000
 -0.333333  0.166667  0.000000      4.000000
 -0.166667  0.166667  0.000000      2.000000
  0.333333  0.333333  0.000000      2.000000
  0.500000  0.333333  0.000000      8.000000
 -0.333333  0.333333  0.000000      2.000000
  0.500000  0.500000  0.000000      2.000000
 -0.000000  0.000000  0.125000      2.000000
  0.166667  0.000000  0.125000      4.000000
  0.333333  0.000000  0.125000      4.000000
  0.500000  0.000000  0.125000      8.000000
 -0.333333 -0.000000  0.125000      4.000000
 -0.166667  0.000000  0.125000      4.000000
  0.166667  0.166667  0.125000      2.000000
  0.333333  0.166667  0.125000      8.000000
  0.500000  0.166667  0.125000      4.000000
 -0.333333  0.166667  0.125000      4.000000
 -0.166667  0.166667  0.125000      4.000000
  0.333333  0.333333  0.125000      2.000000
  0.500000  0.333333  0.125000      4.000000
 -0.333333  0.333333  0.125000      4.000000
 -0.166667  0.333333  0.125000      4.000000
  0.500000  0.500000  0.125000      2.000000
 -0.333333  0.500000  0.125000      4.000000
 -0.166667  0.500000  0.125000      4.000000
 -0.333333 -0.333333  0.125000      2.000000
 -0.166667 -0.333333  0.125000      8.000000
 -0.166667 -0.166667  0.125000      2.000000
 -0.000000  0.000000  0.250000      2.000000
  0.166667  0.000000  0.250000      4.000000
  0.333333  0.000000  0.250000      4.000000
  0.500000  0.000000  0.250000      4.000000
 -0.333333  0.000000  0.250000      4.000000
 -0.166667  0.000000  0.250000      4.000000
  0.166667  0.166667  0.250000      2.000000
  0.333333  0.166667  0.250000      4.000000
  0.500000  0.166667  0.250000      4.000000
 -0.333333  0.166667  0.250000      4.000000
 -0.166667  0.166667  0.250000      4.000000
  0.333333  0.333333  0.250000      2.000000
  0.500000  0.333333  0.250000      4.000000
 -0.333333  0.333333  0.250000      4.000000
[...]
  -0.16666667  0.33333333  0.25000000       0.014
   0.50000000  0.50000000  0.25000000       0.007
  -0.33333333  0.50000000  0.25000000       0.014
  -0.16666667  0.50000000  0.25000000       0.014
  -0.33333333 -0.33333333  0.25000000       0.007
  -0.16666667 -0.33333333  0.25000000       0.014
  -0.16666667 -0.16666667  0.25000000       0.007
   0.00000000  0.00000000  0.37500000       0.007
   0.16666667  0.00000000  0.37500000       0.014
   0.33333333 -0.00000000  0.37500000       0.014
  -0.33333333  0.00000000  0.37500000       0.014
  -0.16666667  0.00000000  0.37500000       0.014
[...]
  -0.33333333  0.33333333  0.37500000       0.014
  -0.16666667  0.33333333  0.37500000       0.014
   0.50000000  0.50000000  0.37500000       0.007
  -0.33333333  0.50000000  0.37500000       0.014
  -0.16666667  0.50000000  0.37500000       0.014
  -0.33333333 -0.33333333  0.37500000       0.007
  -0.16666667 -0.16666667  0.37500000       0.007
   0.16666667  0.16666667  0.50000000       0.007
   0.50000000  0.16666667  0.50000000       0.014
  -0.33333333  0.16666667  0.50000000       0.014
  -0.16666667  0.16666667  0.50000000       0.007
   0.33333333  0.33333333  0.50000000       0.007
   0.50000000  0.33333333  0.50000000       0.014
  -0.33333333  0.33333333  0.50000000       0.007
   0.50000000  0.50000000  0.50000000       0.003

 position of ions in fractional coordinates (direct lattice)
   0.17173000  0.67173000  0.84347000
   0.82827000  0.32827000  0.15653000
   0.67173000  0.82827000  0.50000000
   0.32827000  0.17173000  0.50000000
   0.19912000  0.30088000  0.50000000
   0.50000000  0.00000000  0.00000000
   0.80088000  0.69912000  0.50000000
   0.30088000  0.80088000  0.10176000
   0.00000000  0.00000000  0.50000000
   0.69912000  0.19912000  0.89824000
   0.00000000  0.50000000  0.00000000
   0.50000000  0.50000000  0.50000000
   0.37301000  0.37301000  0.00000000
   0.62699000  0.62699000  0.00000000
   0.12699000  0.12699000  0.00000000
   0.87301000  0.87301000  0.00000000

 position of ions in cartesian coordinates  (Angst):
  -0.21947529  3.75243709  2.76607109
   4.26815071  1.83379114 -3.11531763
   2.43322545  4.62690526 -1.98892240
   1.61544996  0.95932298  1.63967587
   0.62000145  1.68078435  1.63967587
   2.93909203  0.00000000 -1.81429913
   3.42867396  3.90544389 -1.98892240
   0.30341114  4.47389847 -3.29489144
   0.00000000  0.00000000  3.45397500
   3.74526428  1.11232977  2.94564490
  -0.91475432  2.79311412 -1.81429913
   2.02433771  2.79311412 -0.17462327
   1.51019642  2.08371900 -2.70700688
   2.53847900  3.50250924 -4.55018966
   0.51414129  0.70939512 -0.92159139
   3.53453412  4.87683311 -6.33560515

 k-point   1 :   0.0000 0.0000 0.0000  plane waves:    7599
 k-point   2 :   0.1667 0.0000 0.0000  plane waves:    7573
 k-point   3 :   0.3333 0.0000 0.0000  plane waves:    7580
 k-point   4 :   0.5000 0.0000 0.0000  plane waves:    7558
 k-point   5 :   0.1667 0.1667 0.0000  plane waves:    7567
 k-point   6 :   0.3333 0.1667 0.0000  plane waves:    7581
 k-point   7 :   0.5000 0.1667 0.0000  plane waves:    7567
 k-point   8 :  -0.3333 0.1667 0.0000  plane waves:    7562
 k-point   9 :  -0.1667 0.1667 0.0000  plane waves:    7563
 k-point  10 :   0.3333 0.3333 0.0000  plane waves:    7572
 k-point  11 :   0.5000 0.3333 0.0000  plane waves:    7570
 k-point  12 :  -0.3333 0.3333 0.0000  plane waves:    7539
 k-point  13 :   0.5000 0.5000 0.0000  plane waves:    7560
 k-point  14 :  -0.0000 0.0000 0.1250  plane waves:    7555
 k-point  15 :   0.1667 0.0000 0.1250  plane waves:    7563
 k-point  16 :   0.3333 0.0000 0.1250  plane waves:    7569
 k-point  17 :   0.5000 0.0000 0.1250  plane waves:    7591
 k-point  18 :  -0.3333-0.0000 0.1250  plane waves:    7571
 k-point  19 :  -0.1667 0.0000 0.1250  plane waves:    7576
 k-point  20 :   0.1667 0.1667 0.1250  plane waves:    7568
 k-point  21 :   0.3333 0.1667 0.1250  plane waves:    7555
 k-point  22 :   0.5000 0.1667 0.1250  plane waves:    7553
 k-point  23 :  -0.3333 0.1667 0.1250  plane waves:    7558
 k-point  24 :  -0.1667 0.1667 0.1250  plane waves:    7568
 k-point  25 :   0.3333 0.3333 0.1250  plane waves:    7547
 k-point  26 :   0.5000 0.3333 0.1250  plane waves:    7560
 k-point  27 :  -0.3333 0.3333 0.1250  plane waves:    7558
 k-point  28 :  -0.1667 0.3333 0.1250  plane waves:    7573
 k-point  29 :   0.5000 0.5000 0.1250  plane waves:    7560
 k-point  30 :  -0.3333 0.5000 0.1250  plane waves:    7580
 k-point  31 :  -0.1667 0.5000 0.1250  plane waves:    7581
 k-point  32 :  -0.3333-0.3333 0.1250  plane waves:    7573
 k-point  33 :  -0.1667-0.3333 0.1250  plane waves:    7578
 k-point  34 :  -0.1667-0.1667 0.1250  plane waves:    7579
 k-point  35 :  -0.0000 0.0000 0.2500  plane waves:    7547
 k-point  36 :   0.1667 0.0000 0.2500  plane waves:    7560
 k-point  37 :   0.3333 0.0000 0.2500  plane waves:    7570
 k-point  38 :   0.5000 0.0000 0.2500  plane waves:    7580
 k-point  39 :  -0.3333 0.0000 0.2500  plane waves:    7574
 k-point  40 :  -0.1667 0.0000 0.2500  plane waves:    7571
 k-point  41 :   0.1667 0.1667 0.2500  plane waves:    7540
 k-point  42 :   0.3333 0.1667 0.2500  plane waves:    7561
 k-point  43 :   0.5000 0.1667 0.2500  plane waves:    7558
 k-point  44 :  -0.3333 0.1667 0.2500  plane waves:    7571
 k-point  45 :  -0.1667 0.1667 0.2500  plane waves:    7566
 k-point  46 :   0.3333 0.3333 0.2500  plane waves:    7558
 k-point  47 :   0.5000 0.3333 0.2500  plane waves:    7575
 k-point  48 :  -0.3333 0.3333 0.2500  plane waves:    7567
 k-point  49 :  -0.1667 0.3333 0.2500  plane waves:    7568
 k-point  50 :   0.5000 0.5000 0.2500  plane waves:    7582
 k-point  51 :  -0.3333 0.5000 0.2500  plane waves:    7581
 k-point  52 :  -0.1667 0.5000 0.2500  plane waves:    7587
 k-point  53 :  -0.3333-0.3333 0.2500  plane waves:    7580
 k-point  54 :  -0.1667-0.3333 0.2500  plane waves:    7577
 k-point  55 :  -0.1667-0.1667 0.2500  plane waves:    7564
 k-point  56 :   0.0000 0.0000 0.3750  plane waves:    7549
 k-point  57 :   0.1667 0.0000 0.3750  plane waves:    7572
 k-point  58 :   0.3333-0.0000 0.3750  plane waves:    7570
 k-point  59 :  -0.3333 0.0000 0.3750  plane waves:    7578
 k-point  60 :  -0.1667 0.0000 0.3750  plane waves:    7556
[...]
 k-point  67 :  -0.3333 0.3333 0.3750  plane waves:    7588
 k-point  68 :  -0.1667 0.3333 0.3750  plane waves:    7575
 k-point  69 :   0.5000 0.5000 0.3750  plane waves:    7564
 k-point  70 :  -0.3333 0.5000 0.3750  plane waves:    7559
 k-point  71 :  -0.1667 0.5000 0.3750  plane waves:    7577
 k-point  72 :  -0.3333-0.3333 0.3750  plane waves:    7578
 k-point  73 :  -0.1667-0.1667 0.3750  plane waves:    7578
 k-point  74 :   0.1667 0.1667 0.5000  plane waves:    7539
 k-point  75 :   0.5000 0.1667 0.5000  plane waves:    7590
 k-point  76 :  -0.3333 0.1667 0.5000  plane waves:    7584
 k-point  77 :  -0.1667 0.1667 0.5000  plane waves:    7572
 k-point  78 :   0.3333 0.3333 0.5000  plane waves:    7566
 k-point  79 :   0.5000 0.3333 0.5000  plane waves:    7573
 k-point  80 :  -0.3333 0.3333 0.5000  plane waves:    7584
 k-point  81 :   0.5000 0.5000 0.5000  plane waves:    7544

 maximum and minimum number of plane-waves per node :      3806     3764

 maximum number of plane-waves:      7599
 maximum index in each direction:
   IXMAX=   14   IYMAX=   14   IZMAX=   13
   IXMIN=  -14   IYMIN=  -14   IZMIN=  -14

 parallel 3D FFT for wavefunctions:
    minimum data exchange during FFTs selected (reduces bandwidth)
 parallel 3D FFT for charge:
    minimum data exchange during FFTs selected (reduces bandwidth)

 Broyden mixing: mesh for mixing (old mesh)
   NGX = 27   NGY = 27   NGZ = 27
  (NGX  =112   NGY  =112   NGZ  =112)
  gives a total of  19683 points

 initial charge density was supplied:
 charge density of overlapping atoms calculated
 number of electron     140.0000000 magnetization
 keeping initial charge density in first step

 Maximum index for augmentation-charges        23344 (set IRDMAX)

 First call to EWALD:  gamma=   0.291
 Maximum number of real-space cells 3x 3x 3
 Maximum number of reciprocal cells 3x 3x 3

--------------------------------------- Iteration      1(   1)  ---------------------------------------

 eigenvalue-minimisations  : 14208
 total energy-change (2. order) : 0.1605317E+04  (-0.9538430E+04)
 number of electron     140.0000000 magnetization
 augmentation part      140.0000000 magnetization

 Free energy of the ion-electron system (eV)
  alpha Z        PSCENC =       727.32795445
  Ewald energy   TEWEN  =    -11819.03940400
  -Hartree energ DENC   =     -3708.78695508
  -exchange      EXHF   =         0.00000000
  -V(xc)+E(xc)   XCENC  =       634.24818893
  PAW double counting   =     12389.31429867   -12320.88645853
  entropy T*S    EENTRO =        -0.00122996
  eigenvalues    EBANDS =       107.93552198
  atomic energy  EATOM  =     15595.20480735
  free energy    TOTEN  =      1605.31672383 eV

  energy without entropy =     1605.31795379  energy(sigma->0) =     1605.31733881

[...]

 eigenvalue-minimisations  : 14904
 total energy-change (2. order) :-0.1786800E+04  (-0.1740752E+04)
 number of electron     140.0000000 magnetization
 augmentation part      140.0000000 magnetization

[...]

 eigenvalue-minimisations  :     0
 total energy-change (2. order) :-0.4118192E-08  (-0.1360100E-08)
 number of electron     140.0000001 magnetization
 augmentation part       19.5999319 magnetization

[...]

--------------------------------------- Iteration      1(  38)  ---------------------------------------

 eigenvalue-minimisations  :     0
 total energy-change (2. order) : 0.4238245E-09  (-0.5859374E-09)
 number of electron     140.0000001 magnetization
 augmentation part       19.5999327 magnetization

 Free energy of the ion-electron system (eV)
  alpha Z        PSCENC =       727.32795445
  Ewald energy   TEWEN  =    -11819.03940400
  -Hartree energ DENC   =     -3689.49633789
  -exchange      EXHF   =         0.00000000
  -V(xc)+E(xc)   XCENC  =       654.63496870
  PAW double counting   =     21708.43722606   -21645.67382050
  entropy T*S    EENTRO =        -0.00245865
  eigenvalues    EBANDS =     -1727.90259600
  atomic energy  EATOM  =     15595.20480735
  free energy    TOTEN  =      -196.50966048 eV

  energy without entropy =     -196.50720183  energy(sigma->0) =     -196.50843115

  average scaling for gradient   0.8422

 average (electrostatic) potential at core
  the test charge radii are     0.7672  1.0818  0.9892
  (the norm of the test charge is              1.0000)
       1 -28.9484       2 -28.9481       3 -28.9473       4 -28.9461       5 -76.5799
       6 -77.1811       7 -76.5787       8 -76.5811       9 -77.1814      10 -76.5807
      11 -77.1820      12 -77.1814      13 -83.0246      14 -83.0246      15 -83.0246
      16 -83.0245

 E-fermi :   9.8194     XC(G=0): -12.7339     alpha+bet :-17.2058

 Fermi energy:         9.8193589698

 k-point     1 :       0.0000    0.0000    0.0000
  band No.  band energies     occupation
      1     -53.5822      2.00000
      2     -53.5689      2.00000
      3     -53.5297      2.00000
      4     -53.5281      2.00000
      5     -53.2071      2.00000
      6     -53.2070      2.00000
      7     -53.1658      2.00000
      8     -53.1490      2.00000
      9     -28.6082      2.00000
     10     -28.5725      2.00000
     11     -28.5708      2.00000
     12     -28.5450      2.00000
     13     -27.5173      2.00000
     14     -27.4695      2.00000
     15     -26.8322      2.00000
     16     -26.8320      2.00000
     17     -26.6567      2.00000
     18     -26.6270      2.00000
     19     -26.6268      2.00000
     20     -26.5533      2.00000
     21     -26.4802      2.00000
     22     -26.4134      2.00000
     23     -26.4125      2.00000
     24     -26.4125      2.00000
     25     -26.3803      2.00000
     26     -26.3751      2.00000
     27     -26.3737      2.00000
     28     -26.2303      2.00000
     29     -26.2291      2.00000
     30     -26.1853      2.00000
     31     -25.6041      2.00000
     32     -25.5934      2.00000
     33      -2.5874      2.00000
     34      -0.2048      2.00000
     35       0.3046      2.00000
     36       2.2502      2.00000
     37       2.2506      2.00000
     38       2.2741      2.00000
     39       2.6801      2.00000
     40       2.9919      2.00000
     41       2.9923      2.00000
     42       3.3850      2.00000
     43       3.5889      2.00000
     44       3.7124      2.00000
     45       3.7280      2.00000
     46       4.8258      2.00000
     47       4.8260      2.00000
     48       5.0907      2.00000
     49       5.0908      2.00000
     50       5.4830      2.00000
     51       5.4849      2.00000
     52       5.4849      2.00000
     53       5.5347      2.00000
     54       6.3517      2.00000
     55       6.7469      2.00000
     56       6.7473      2.00000
     57       7.1768      2.00000
     58       7.3822      2.00000
     59       7.5860      2.00000
     60       7.7267      2.00000
[...]
     70       9.2399      2.00000
     71       9.3150      2.00000
     72       9.3151      2.00000
     73       9.9664      0.00000
     74      10.3867      0.00000
     75      10.5275      0.00000
     76      11.0375      0.00000
     77      11.0376      0.00000
     78      11.3425      0.00000
     79      11.5032      0.00000
     80      11.5088      0.00000
     81      11.9674      0.00000
     82      12.2230      0.00000
     83      12.3888      0.00000
     84      13.0933      0.00000

[...]

 k-point    81 :       0.5000    0.5000    0.5000
  band No.  band energies     occupation
      1     -53.5757      2.00000
      2     -53.5742      2.00000
      3     -53.5352      2.00000
      4     -53.5239      2.00000
      5     -53.2166      2.00000
      6     -53.1977      2.00000
      7     -53.1574      2.00000
      8     -53.1571      2.00000
      9     -28.6187      2.00000
     10     -28.5631      2.00000
     11     -28.5615      2.00000
     12     -28.5528      2.00000
     13     -27.4923      2.00000
     14     -27.4917      2.00000
     15     -26.8461      2.00000
     16     -26.8191      2.00000
     17     -26.7128      2.00000
     18     -26.5979      2.00000
     19     -26.5978      2.00000
     20     -26.5179      2.00000
     21     -26.4993      2.00000
     22     -26.4479      2.00000
     23     -26.4478      2.00000
     24     -26.3943      2.00000
     25     -26.3615      2.00000
     26     -26.3577      2.00000
     27     -26.3207      2.00000
     28     -26.2800      2.00000
     29     -26.2787      2.00000
     30     -26.1452      2.00000
     31     -25.5986      2.00000
     32     -25.5977      2.00000
     33      -1.2363      2.00000
     34      -0.9808      2.00000
     35      -0.8380      2.00000
     36       1.6725      2.00000
     37       1.6727      2.00000
     38       1.9180      2.00000
     39       2.6879      2.00000
     40       2.7932      2.00000
     41       3.8194      2.00000
     42       3.9542      2.00000
     43       3.9548      2.00000
     44       4.1184      2.00000
     45       4.1186      2.00000
     46       4.1532      2.00000
     47       4.2542      2.00000
     48       4.3069      2.00000
     49       5.1356      2.00000
     50       5.1357      2.00000
     51       6.1161      2.00000
     52       6.1163      2.00000
     53       6.6395      2.00000
     54       6.6396      2.00000
     55       6.8400      2.00000
     56       6.8653      2.00000
     57       7.1572      2.00000
     58       7.7323      2.00000
     59       7.7943      2.00000
     60       7.8704      2.00000
[...]
     70       9.7253      2.00000
     71       9.7256      2.00000
     72      10.2460      0.00000
     73      10.2988      0.00000
     74      10.2990      0.00000
     75      10.8543      0.00000
     76      10.8543      0.00000
     77      11.1023      0.00000
     78      11.3576      0.00000
     79      11.4015      0.00000
     80      11.4605      0.00000
     81      12.2754      0.00000
     82      12.3560      0.00000
     83      12.3571      0.00000
     84      13.4358      0.00000

 soft charge-density along one line, spin component           1
         0         1         2         3         4         5         6         7         8         9
 total charge-density along one line

------------------------ aborting loop because EDIFF is reached ----------------------------------------

  FREE ENERGIE OF THE ION-ELECTRON SYSTEM (eV)
  free  energy   TOTEN  =      -196.50966048 eV

  energy  without entropy=     -196.50720183  energy(sigma->0) =     -196.50843115

 writing wavefunctions