 vasp.6.2.0 18Jan21 (build Jan 05 2022 15:41:44) complex

 executed on             LinuxIFC date 2025.05.07  21:25:12

 INCAR:
   SYSTEM = routine with relax: pwdword
   ICHARG = 2
   NPAR = 6
   KPAR = 2
   NCORE = 2
   ADDGRID = T
   PREC = Acc
   ENCUT = 600
   METAGGA = R2SCAN
   LASPH = .TRUE.
   LMIXTAU = .FALSE.
   ALGO = A
   EDIFF = 1E-9
   NELM = 100
   NELMIN = 6
   IALGO = 38
   LREAL = F
   NSW = 0
   ISIF = -1
   ISMEAR = 0
   SIGMA = 0.02

 POTCAR:    PAW_PBE Mo_sv 02Feb2006
 POTCAR:    PAW_PBE Si 05Jan2001
|           W    W    AA    RRRRR   N    N  II  N    N   GGGG   !!!           |
|           W    W   A  A   R    R  NN   N  II  NN   N  G    G  !!!           |
|           W    W  A    A  R    R  N N  N  II  N N  N  G       !!!           |
|           W WW W  AAAAAA  RRRRR   N  N N  II  N  N N  G  GGG   !            |
|           WW  WW  A    A  R   R   N   NN  II  N   NN  G    G                |
|           W    W  A    A  R    R  N    N  II  N    N   GGGG   !!!           |
|     For optimal performance we recommend to set                             |
|       NCORE = 2 up to number-of-cores-per-socket                            |
|     This setting can greatly improve the performance of VASP for DFT.       |
|     The default, NCORE=1 might be grossly inefficient on modern             |
|     multi-core architectures or massively parallel machines. Do your        |
|     Unfortunately you need to use the default for GW and RPA                |
|     calculations (for HF NCORE is supported but not extensively tested      |
|     yet).                                                                   |

 POTCAR:    PAW_PBE Mo_sv 02Feb2006
   VRHFIN =Mo: 4p5s4d

   TITEL  = PAW_PBE Mo_sv 02Feb2006
   POMASS =   95.940; ZVAL   =   14.000    mass and valenz
   ENMAX  =  242.676; ENMIN  =  182.007 eV

 POTCAR:    PAW_PBE Si 05Jan2001
   VRHFIN =Si: s2p2

   TITEL  = PAW_PBE Si 05Jan2001
   POMASS =   28.085; ZVAL   =    4.000    mass and valenz
   ENMAX  =  245.345; ENMIN  =  184.009 eV

  PAW_PBE Mo_sv 02Feb2006               :
  PAW_PBE Si 05Jan2001                  :

 POSCAR: EA254
  positions in direct lattice

 METAGGA = R2SCA    LMAXTAU =  6    LMIXTAU =  F

 ion  position               nearest neighbor table
   1  0.500  0.500  0.000-   7 2.58   8 2.58   9 2.58  10 2.58   3 2.98   4 2.98   5 2.98   6 2.98
                             3 2.98   4 2.98   5 2.98   6 2.98
   2  0.000  0.000  0.000-   7 2.58   8 2.58   9 2.58  10 2.58   3 2.98   4 2.98   5 2.98   6 2.98
                             3 2.98   4 2.98   5 2.98   6 2.98
   3  0.661  0.161  0.500-   8 2.53   8 2.53  10 2.57   9 2.57   9 2.57  10 2.57   2 2.98   2 2.98
                             1 2.98   1 2.98   4 3.03
   4  0.339  0.839  0.500-   7 2.53   7 2.53  10 2.57   9 2.57   9 2.57  10 2.57   2 2.98   2 2.98
                             1 2.98   1 2.98   3 3.03
   5  0.161  0.339  0.500-  10 2.53  10 2.53   7 2.57   7 2.57   8 2.57   8 2.57   2 2.98   2 2.98
                             1 2.98   1 2.98   6 3.03
   6  0.839  0.661  0.500-   9 2.53   9 2.53   7 2.57   7 2.57   8 2.57   8 2.57   2 2.98   2 2.98
                             1 2.98   1 2.98   5 3.03
   7  0.134  0.634  0.000-   8 2.52   4 2.53   4 2.53   5 2.57   6 2.57   5 2.57   6 2.57   2 2.58
                             1 2.58
   8  0.866  0.366  0.000-   7 2.52   3 2.53   3 2.53   5 2.57   6 2.57   5 2.57   6 2.57   2 2.58
                             1 2.58
   9  0.634  0.866  0.000-  10 2.52   6 2.53   6 2.53   4 2.57   3 2.57   4 2.57   3 2.57   2 2.58
                             1 2.58
  10  0.366  0.134  0.000-   9 2.52   5 2.53   5 2.53   4 2.57   3 2.57   4 2.57   3 2.57   2 2.58
                             1 2.58

  LATTYP: Found a simple tetragonal cell.
 ALAT       =     6.6332000000
 C/A-ratio  =     0.4970089851

  Lattice vectors:

 A1 = (   6.6332000000,   0.0000000000,   0.0000000000)
 A2 = (   0.0000000000,   6.6332000000,   0.0000000000)
 A3 = (   0.0000000000,   0.0000000000,   3.2967600000)

Analysis of symmetry for initial positions (statically):
 Subroutine PRICEL returns:
 Original cell was already a primitive cell.

 Routine SETGRP: Setting up the symmetry group for a
 simple tetragonal supercell.

 Subroutine GETGRP returns: Found 16 space group operations
 (whereof  8 operations were pure point group operations)
 out of a pool of 16 trial point group operations.

The static configuration has the point symmetry C_4h.
 The point group associated with its full space group is D_4h.

Analysis of symmetry for dynamics (positions and initial velocities):
 Subroutine PRICEL returns:
 Original cell was already a primitive cell.

 Routine SETGRP: Setting up the symmetry group for a
 simple tetragonal supercell.

 Subroutine GETGRP returns: Found 16 space group operations
 (whereof  8 operations were pure point group operations)
 out of a pool of 16 trial point group operations.

The dynamic configuration has the point symmetry C_4h.
 The point group associated with its full space group is D_4h.

 Subroutine INISYM returns: Found 16 space group operations
 (whereof  8 operations are pure point group operations),
 and found     1 'primitive' translations

                                     Primitive cell

  volume of cell :     145.0553

  direct lattice vectors                    reciprocal lattice vectors
     6.633200000  0.000000000  0.000000000     0.150756799  0.000000000  0.000000000
     0.000000000  6.633200000  0.000000000     0.000000000  0.150756799  0.000000000
     0.000000000  0.000000000  3.296760000     0.000000000  0.000000000  0.303328116

  length of vectors
     6.633200000  6.633200000  3.296760000     0.150756799  0.150756799  0.303328116

  position of ions in fractional coordinates (direct lattice)
     0.500000000  0.500000000  0.000000000
     0.000000000  0.000000000  0.000000000
     0.661257000  0.161257000  0.500000000
     0.338743000  0.838743000  0.500000000
     0.161257000  0.338743000  0.500000000
     0.838743000  0.661257000  0.500000000
     0.134245000  0.634245000  0.000000000
     0.865755000  0.365755000  0.000000000
     0.634245000  0.865755000  0.000000000
     0.365755000  0.134245000  0.000000000

  ion indices of the primitive-cell ions
   primitive index   ion index
                 1           1
                 2           2
                 3           3
                 4           4
                 5           5
                 6           6
                 7           7
                 8           8
                 9           9
                10          10

 KPOINTS: EA

Automatic generation of k-mesh.
 Grid dimensions read from file:
 generate k-points for:    6    6   11

 Generating k-lattice:

  Cartesian coordinates                     Fractional coordinates (reciprocal lattice)
     0.025126133  0.000000000  0.000000000     0.166666667  0.000000000  0.000000000
     0.000000000  0.025126133  0.000000000     0.000000000  0.166666667  0.000000000
     0.000000000  0.000000000  0.027575283     0.000000000  0.000000000  0.090909091

  Length of vectors
     0.025126133  0.025126133  0.027575283

  Shift w.r.t. Gamma in fractional coordinates (k-lattice)
     0.000000000  0.000000000  0.000000000

 Subroutine IBZKPT returns following result:

 Found     60 irreducible k-points:

 Following reciprocal coordinates:
            Coordinates               Weight
  0.000000  0.000000  0.000000      1.000000
  0.166667  0.000000  0.000000      4.000000
  0.333333  0.000000  0.000000      4.000000
  0.500000  0.000000  0.000000      2.000000
  0.166667  0.166667  0.000000      4.000000
  0.333333  0.166667  0.000000      8.000000
  0.500000  0.166667  0.000000      4.000000
  0.333333  0.333333  0.000000      4.000000
  0.500000  0.333333  0.000000      4.000000
  0.500000  0.500000  0.000000      1.000000
  0.000000  0.000000  0.090909      2.000000
  0.166667  0.000000  0.090909      8.000000
  0.333333  0.000000  0.090909      8.000000
  0.500000  0.000000  0.090909      4.000000
  0.166667  0.166667  0.090909      8.000000
  0.333333  0.166667  0.090909     16.000000
  0.500000  0.166667  0.090909      8.000000
  0.333333  0.333333  0.090909      8.000000
  0.500000  0.333333  0.090909      8.000000
  0.500000  0.500000  0.090909      2.000000
  0.000000  0.000000  0.181818      2.000000
  0.166667  0.000000  0.181818      8.000000
  0.333333  0.000000  0.181818      8.000000
  0.500000  0.000000  0.181818      4.000000
  0.166667  0.166667  0.181818      8.000000
  0.333333  0.166667  0.181818     16.000000
  0.500000  0.166667  0.181818      8.000000
  0.333333  0.333333  0.181818      8.000000
  0.500000  0.333333  0.181818      8.000000
  0.500000  0.500000  0.181818      2.000000
  0.000000  0.000000  0.272727      2.000000
  0.166667  0.000000  0.272727      8.000000
  0.333333  0.000000  0.272727      8.000000
  0.500000  0.000000  0.272727      4.000000
  0.166667  0.166667  0.272727      8.000000
  0.333333  0.166667  0.272727     16.000000
  0.500000  0.166667  0.272727      8.000000
  0.333333  0.333333  0.272727      8.000000
  0.500000  0.333333  0.272727      8.000000
  0.500000  0.500000  0.272727      2.000000
  0.000000  0.000000  0.363636      2.000000
  0.166667  0.000000  0.363636      8.000000
  0.333333  0.000000  0.363636      8.000000
  0.500000  0.000000  0.363636      4.000000
  0.166667  0.166667  0.363636      8.000000
  0.333333  0.166667  0.363636     16.000000
  0.500000  0.166667  0.363636      8.000000
  0.333333  0.333333  0.363636      8.000000
  0.500000  0.333333  0.363636      8.000000
  0.500000  0.500000  0.363636      2.000000
  0.000000  0.000000  0.454545      2.000000
  0.166667  0.000000  0.454545      8.000000
  0.333333  0.000000  0.454545      8.000000
  0.500000  0.000000  0.454545      4.000000
  0.166667  0.166667  0.454545      8.000000
  0.333333  0.166667  0.454545     16.000000
  0.500000  0.166667  0.454545      8.000000
  0.333333  0.333333  0.454545      8.000000
  0.500000  0.333333  0.454545      8.000000
  0.500000  0.500000  0.454545      2.000000

 Following cartesian coordinates:
            Coordinates               Weight
  0.000000  0.000000  0.000000      1.000000
  0.025126  0.000000  0.000000      4.000000
  0.050252  0.000000  0.000000      4.000000
  0.075378  0.000000  0.000000      2.000000
  0.025126  0.025126  0.000000      4.000000
  0.050252  0.025126  0.000000      8.000000
  0.075378  0.025126  0.000000      4.000000
  0.050252  0.050252  0.000000      4.000000
  0.075378  0.050252  0.000000      4.000000
  0.075378  0.075378  0.000000      1.000000
  0.000000  0.000000  0.027575      2.000000
  0.025126  0.000000  0.027575      8.000000
  0.050252  0.000000  0.027575      8.000000
  0.075378  0.000000  0.027575      4.000000
  0.025126  0.025126  0.027575      8.000000
  0.050252  0.025126  0.027575     16.000000
  0.075378  0.025126  0.027575      8.000000
  0.050252  0.050252  0.027575      8.000000
  0.075378  0.050252  0.027575      8.000000
  0.075378  0.075378  0.027575      2.000000
  0.000000  0.000000  0.055151      2.000000
[...]
   0.07537840  0.05025227  0.11030113       0.020
   0.07537840  0.07537840  0.11030113       0.005
   0.00000000  0.00000000  0.13787642       0.005
   0.02512613  0.00000000  0.13787642       0.020
   0.05025227  0.00000000  0.13787642       0.020
   0.07537840  0.00000000  0.13787642       0.010
   0.02512613  0.02512613  0.13787642       0.020
   0.05025227  0.02512613  0.13787642       0.040
   0.07537840  0.02512613  0.13787642       0.020
   0.05025227  0.05025227  0.13787642       0.020
   0.07537840  0.05025227  0.13787642       0.020
   0.07537840  0.07537840  0.13787642       0.005

 k-points in reciprocal lattice and weights: EA
   0.00000000  0.00000000  0.00000000       0.003
   0.16666667  0.00000000  0.00000000       0.010
   0.33333333  0.00000000  0.00000000       0.010
   0.50000000  0.00000000  0.00000000       0.005
   0.16666667  0.16666667  0.00000000       0.010
   0.33333333  0.16666667  0.00000000       0.020
   0.50000000  0.16666667  0.00000000       0.010
   0.33333333  0.33333333  0.00000000       0.010
   0.50000000  0.33333333  0.00000000       0.010
   0.50000000  0.50000000  0.00000000       0.003
   0.00000000  0.00000000  0.09090909       0.005
   0.16666667  0.00000000  0.09090909       0.020
   0.33333333  0.00000000  0.09090909       0.020
   0.50000000  0.00000000  0.09090909       0.010
   0.16666667  0.16666667  0.09090909       0.020
   0.33333333  0.16666667  0.09090909       0.040
   0.50000000  0.16666667  0.09090909       0.020
   0.33333333  0.33333333  0.09090909       0.020
   0.50000000  0.33333333  0.09090909       0.020
   0.50000000  0.50000000  0.09090909       0.005
   0.00000000  0.00000000  0.18181818       0.005
   0.16666667  0.00000000  0.18181818       0.020
   0.33333333  0.00000000  0.18181818       0.020
   0.50000000  0.00000000  0.18181818       0.010
   0.16666667  0.16666667  0.18181818       0.020
   0.33333333  0.16666667  0.18181818       0.040
   0.50000000  0.16666667  0.18181818       0.020
   0.33333333  0.33333333  0.18181818       0.020
   0.50000000  0.33333333  0.18181818       0.020
   0.50000000  0.50000000  0.18181818       0.005
   0.00000000  0.00000000  0.27272727       0.005
   0.16666667  0.00000000  0.27272727       0.020
   0.33333333  0.00000000  0.27272727       0.020
   0.50000000  0.00000000  0.27272727       0.010
   0.16666667  0.16666667  0.27272727       0.020
   0.33333333  0.16666667  0.27272727       0.040
   0.50000000  0.16666667  0.27272727       0.020
   0.33333333  0.33333333  0.27272727       0.020
   0.50000000  0.33333333  0.27272727       0.020
   0.50000000  0.50000000  0.27272727       0.005
   0.00000000  0.00000000  0.36363636       0.005
   0.16666667  0.00000000  0.36363636       0.020
   0.33333333  0.00000000  0.36363636       0.020
   0.50000000  0.00000000  0.36363636       0.010
   0.16666667  0.16666667  0.36363636       0.020
   0.33333333  0.16666667  0.36363636       0.040
   0.50000000  0.16666667  0.36363636       0.020
   0.33333333  0.33333333  0.36363636       0.020
   0.50000000  0.33333333  0.36363636       0.020
   0.50000000  0.50000000  0.36363636       0.005
   0.00000000  0.00000000  0.45454545       0.005
   0.16666667  0.00000000  0.45454545       0.020
   0.33333333  0.00000000  0.45454545       0.020
   0.50000000  0.00000000  0.45454545       0.010
   0.16666667  0.16666667  0.45454545       0.020
   0.33333333  0.16666667  0.45454545       0.040
   0.50000000  0.16666667  0.45454545       0.020
   0.33333333  0.33333333  0.45454545       0.020
   0.50000000  0.33333333  0.45454545       0.020
   0.50000000  0.50000000  0.45454545       0.005

 position of ions in fractional coordinates (direct lattice)
   0.50000000  0.50000000  0.00000000
   0.00000000  0.00000000  0.00000000
   0.66125700  0.16125700  0.50000000
   0.33874300  0.83874300  0.50000000
   0.16125700  0.33874300  0.50000000
   0.83874300  0.66125700  0.50000000
   0.13424500  0.63424500  0.00000000
   0.86575500  0.36575500  0.00000000
   0.63424500  0.86575500  0.00000000
   0.36575500  0.13424500  0.00000000

 position of ions in cartesian coordinates  (Angst):
   3.31660000  3.31660000  0.00000000
   0.00000000  0.00000000  0.00000000
   4.38624993  1.06964993  1.64838000
   2.24695007  5.56355007  1.64838000
   1.06964993  2.24695007  1.64838000
   5.56355007  4.38624993  1.64838000
   0.89047393  4.20707393  0.00000000
   5.74272607  2.42612607  0.00000000
   4.20707393  5.74272607  0.00000000
   2.42612607  0.89047393  0.00000000

 k-point   1 :   0.0000 0.0000 0.0000  plane waves:    4885
 k-point   2 :   0.1667 0.0000 0.0000  plane waves:    4859
 k-point   3 :   0.3333 0.0000 0.0000  plane waves:    4844
 k-point   4 :   0.5000 0.0000 0.0000  plane waves:    4866
 k-point   5 :   0.1667 0.1667 0.0000  plane waves:    4845
 k-point   6 :   0.3333 0.1667 0.0000  plane waves:    4858
 k-point   7 :   0.5000 0.1667 0.0000  plane waves:    4870
 k-point   8 :   0.3333 0.3333 0.0000  plane waves:    4849
 k-point   9 :   0.5000 0.3333 0.0000  plane waves:    4844
 k-point  10 :   0.5000 0.5000 0.0000  plane waves:    4844
 k-point  11 :   0.0000 0.0000 0.0909  plane waves:    4861
 k-point  12 :   0.1667 0.0000 0.0909  plane waves:    4844
 k-point  13 :   0.3333 0.0000 0.0909  plane waves:    4850
 k-point  14 :   0.5000 0.0000 0.0909  plane waves:    4868
 k-point  15 :   0.1667 0.1667 0.0909  plane waves:    4847
 k-point  16 :   0.3333 0.1667 0.0909  plane waves:    4856
 k-point  17 :   0.5000 0.1667 0.0909  plane waves:    4854
 k-point  18 :   0.3333 0.3333 0.0909  plane waves:    4855
 k-point  19 :   0.5000 0.3333 0.0909  plane waves:    4854
 k-point  20 :   0.5000 0.5000 0.0909  plane waves:    4848
 k-point  21 :   0.0000 0.0000 0.1818  plane waves:    4837
 k-point  22 :   0.1667 0.0000 0.1818  plane waves:    4855
 k-point  23 :   0.3333 0.0000 0.1818  plane waves:    4859
 k-point  24 :   0.5000 0.0000 0.1818  plane waves:    4850
 k-point  25 :   0.1667 0.1667 0.1818  plane waves:    4841
 k-point  26 :   0.3333 0.1667 0.1818  plane waves:    4848
 k-point  27 :   0.5000 0.1667 0.1818  plane waves:    4842
 k-point  28 :   0.3333 0.3333 0.1818  plane waves:    4847
 k-point  29 :   0.5000 0.3333 0.1818  plane waves:    4850
 k-point  30 :   0.5000 0.5000 0.1818  plane waves:    4844
 k-point  31 :   0.0000 0.0000 0.2727  plane waves:    4853
 k-point  32 :   0.1667 0.0000 0.2727  plane waves:    4841
 k-point  33 :   0.3333 0.0000 0.2727  plane waves:    4841
 k-point  34 :   0.5000 0.0000 0.2727  plane waves:    4828
 k-point  35 :   0.1667 0.1667 0.2727  plane waves:    4855
 k-point  36 :   0.3333 0.1667 0.2727  plane waves:    4841
 k-point  37 :   0.5000 0.1667 0.2727  plane waves:    4826
 k-point  38 :   0.3333 0.3333 0.2727  plane waves:    4849
 k-point  39 :   0.5000 0.3333 0.2727  plane waves:    4854
 k-point  40 :   0.5000 0.5000 0.2727  plane waves:    4864
 k-point  41 :   0.0000 0.0000 0.3636  plane waves:    4817
 k-point  42 :   0.1667 0.0000 0.3636  plane waves:    4842
 k-point  43 :   0.3333 0.0000 0.3636  plane waves:    4824
 k-point  44 :   0.5000 0.0000 0.3636  plane waves:    4834
 k-point  45 :   0.1667 0.1667 0.3636  plane waves:    4830
 k-point  46 :   0.3333 0.1667 0.3636  plane waves:    4825
 k-point  47 :   0.5000 0.1667 0.3636  plane waves:    4826
 k-point  48 :   0.3333 0.3333 0.3636  plane waves:    4843
 k-point  49 :   0.5000 0.3333 0.3636  plane waves:    4832
 k-point  50 :   0.5000 0.5000 0.3636  plane waves:    4832
 k-point  51 :   0.0000 0.0000 0.4545  plane waves:    4842
 k-point  52 :   0.1667 0.0000 0.4545  plane waves:    4840
 k-point  53 :   0.3333 0.0000 0.4545  plane waves:    4828
 k-point  54 :   0.5000 0.0000 0.4545  plane waves:    4832
 k-point  55 :   0.1667 0.1667 0.4545  plane waves:    4822
 k-point  56 :   0.3333 0.1667 0.4545  plane waves:    4823
 k-point  57 :   0.5000 0.1667 0.4545  plane waves:    4830
 k-point  58 :   0.3333 0.3333 0.4545  plane waves:    4815
 k-point  59 :   0.5000 0.3333 0.4545  plane waves:    4826
 k-point  60 :   0.5000 0.5000 0.4545  plane waves:    4812

 maximum and minimum number of plane-waves per node :      2443     2394

 maximum number of plane-waves:      4885
 maximum index in each direction:
   IXMAX=   13   IYMAX=   13   IZMAX=    6
   IXMIN=  -13   IYMIN=  -13   IZMIN=   -7

 parallel 3D FFT for wavefunctions:
    minimum data exchange during FFTs selected (reduces bandwidth)
 parallel 3D FFT for charge:
    minimum data exchange during FFTs selected (reduces bandwidth)

 Broyden mixing: mesh for mixing (old mesh)
   NGX = 27   NGY = 27   NGZ = 13
  (NGX  =108   NGY  =108   NGZ  = 56)
  gives a total of   9477 points

 initial charge density was supplied:
 charge density of overlapping atoms calculated
 number of electron     100.0000000 magnetization
 keeping initial charge density in first step

 Maximum index for augmentation-charges        15674 (set IRDMAX)

 First call to EWALD:  gamma=   0.337
 Maximum number of real-space cells 2x 2x 4
 Maximum number of reciprocal cells 3x 3x 2

--------------------------------------- Iteration      1(   1)  ---------------------------------------

 eigenvalue-minimisations  :  7200
 total energy-change (2. order) : 0.1036282E+04  (-0.6719647E+04)
 number of electron     100.0000000 magnetization
 augmentation part      100.0000000 magnetization

 Free energy of the ion-electron system (eV)
  alpha Z        PSCENC =       567.68878659
  Ewald energy   TEWEN  =     -9705.97199490
  -Hartree energ DENC   =     -2229.97693861
  -exchange      EXHF   =         0.00000000
  -V(xc)+E(xc)   XCENC  =       442.58355494
  PAW double counting   =      9250.00517861    -9186.45992739
  entropy T*S    EENTRO =        -0.00033944
  eigenvalues    EBANDS =       312.45187927
  atomic energy  EATOM  =     11585.96136281
  free energy    TOTEN  =      1036.28156188 eV

  energy without entropy =     1036.28190132  energy(sigma->0) =     1036.28173160

[...]

 eigenvalue-minimisations  :  7896
 total energy-change (2. order) :-0.1218990E+04  (-0.1194079E+04)
 number of electron     100.0000000 magnetization
 augmentation part      100.0000000 magnetization

[...]

 eigenvalue-minimisations  :     0
 total energy-change (2. order) :-0.4372851E-08  ( 0.1557866E-07)
 number of electron     100.0000001 magnetization
 augmentation part       13.9118770 magnetization

[...]

 eigenvalue-minimisations  :     0
 total energy-change (2. order) : 0.1254684E-06  (-0.9018491E-07)
 number of electron     100.0000001 magnetization
 augmentation part       13.9118850 magnetization

[...]

--------------------------------------- Iteration      1(  60)  ---------------------------------------

 eigenvalue-minimisations  :     0
 total energy-change (2. order) :-0.1018634E-09  (-0.3441865E-09)
 number of electron     100.0000001 magnetization
 augmentation part       13.9118770 magnetization

 Free energy of the ion-electron system (eV)
  alpha Z        PSCENC =       567.68878659
  Ewald energy   TEWEN  =     -9705.97199490
  -Hartree energ DENC   =     -2070.10801141
  -exchange      EXHF   =         0.00000000
  -V(xc)+E(xc)   XCENC  =       450.89991600
  PAW double counting   =     13533.74926051   -13488.62607976
  entropy T*S    EENTRO =        -0.00263279
  eigenvalues    EBANDS =     -1067.64558645
  atomic energy  EATOM  =     11585.96136281
  free energy    TOTEN  =      -194.05497940 eV

  energy without entropy =     -194.05234661  energy(sigma->0) =     -194.05366301

  average scaling for gradient   0.7315

 average (electrostatic) potential at core
  the test charge radii are     1.0818  0.9892
  (the norm of the test charge is              1.0000)
       1 -74.6125       2 -74.6125       3 -74.8257       4 -74.8257       5 -74.8257
       6 -74.8257       7 -80.2858       8 -80.2858       9 -80.2858      10 -80.2858

 E-fermi :  12.2314     XC(G=0): -13.8164     alpha+bet :-19.5377

 Fermi energy:        12.2313656028

 k-point     1 :       0.0000    0.0000    0.0000
  band No.  band energies     occupation
      1     -50.9030      2.00000
      2     -50.8767      2.00000
      3     -50.8621      2.00000
      4     -50.8621      2.00000
      5     -50.6305      2.00000
      6     -50.6155      2.00000
      7     -24.5076      2.00000
      8     -24.4802      2.00000
      9     -24.4802      2.00000
     10     -24.4065      2.00000
     11     -24.3190      2.00000
     12     -24.2696      2.00000
     13     -24.2478      2.00000
     14     -24.2478      2.00000
     15     -24.2406      2.00000
     16     -24.2243      2.00000
     17     -24.2243      2.00000
     18     -24.1905      2.00000
     19     -23.9851      2.00000
     20     -23.9851      2.00000
     21     -23.9404      2.00000
     22     -23.8780      2.00000
     23     -23.8207      2.00000
     24     -23.8207      2.00000
     25      -0.3432      2.00000
     26       1.7174      2.00000
     27       3.1583      2.00000
     28       3.1583      2.00000
     29       5.1974      2.00000
     30       6.9642      2.00000
     31       6.9706      2.00000
     32       6.9748      2.00000
     33       6.9748      2.00000
     34       7.4610      2.00000
     35       7.7558      2.00000
     36       8.3503      2.00000
     37       8.6160      2.00000
     38       9.0686      2.00000
     39       9.0686      2.00000
     40       9.3346      2.00000
     41       9.3346      2.00000
     42       9.6715      2.00000
     43      10.2134      2.00000
     44      10.2883      2.00000
     45      10.7232      2.00000
     46      11.0877      2.00000
     47      11.2984      2.00000
     48      11.2984      2.00000
     49      11.8972      2.00000
     50      12.1525      2.00000
     51      12.3493      0.00000
     52      12.3493      0.00000
     53      12.7798      0.00000
     54      12.7799      0.00000
     55      13.1769      0.00000
     56      13.1979      0.00000
     57      13.3925      0.00000
     58      13.4787      0.00000
     59      13.6346      0.00000
     60      13.8765      0.00000

[...]

 k-point    60 :       0.5000    0.5000    0.4545
  band No.  band energies     occupation
      1     -50.8687      2.00000
      2     -50.8687      2.00000
      3     -50.8488      2.00000
      4     -50.8488      2.00000
      5     -50.6183      2.00000
      6     -50.6183      2.00000
      7     -24.5669      2.00000
      8     -24.5669      2.00000
      9     -24.4269      2.00000
     10     -24.4269      2.00000
     11     -24.4256      2.00000
     12     -24.4256      2.00000
     13     -24.4100      2.00000
     14     -24.4100      2.00000
     15     -24.2184      2.00000
     16     -24.2184      2.00000
     17     -24.1844      2.00000
     18     -24.1844      2.00000
     19     -24.0034      2.00000
     20     -24.0034      2.00000
     21     -23.9359      2.00000
     22     -23.9359      2.00000
     23     -23.8983      2.00000
     24     -23.8983      2.00000
     25       2.1881      2.00000
     26       2.1881      2.00000
     27       3.4872      2.00000
     28       3.4872      2.00000
     29       5.6700      2.00000
     30       5.6700      2.00000
     31       7.1449      2.00000
     32       7.1449      2.00000
     33       7.4836      2.00000
     34       7.4836      2.00000
     35       7.7136      2.00000
     36       7.7136      2.00000
     37       8.3084      2.00000
     38       8.3084      2.00000
     39       8.4356      2.00000
     40       8.4356      2.00000
     41       9.2825      2.00000
     42       9.2825      2.00000
     43       9.3466      2.00000
     44       9.3466      2.00000
     45       9.6424      2.00000
     46       9.6424      2.00000
     47      11.8792      2.00000
     48      11.8792      2.00000
     49      12.9844      0.00000
     50      12.9844      0.00000
     51      13.2642      0.00000
     52      13.2642      0.00000
     53      13.6710      0.00000
     54      13.6710      0.00000
     55      13.8863      0.00000
     56      13.8863      0.00000
     57      14.0095      0.00000
     58      14.0095      0.00000
     59      14.2325      0.00000
     60      14.2326      0.00000

 soft charge-density along one line, spin component           1
         0         1         2         3         4         5         6         7         8         9
 total charge-density along one line

------------------------ aborting loop because EDIFF is reached ----------------------------------------

  FREE ENERGIE OF THE ION-ELECTRON SYSTEM (eV)
  free  energy   TOTEN  =      -194.05497940 eV

  energy  without entropy=     -194.05234661  energy(sigma->0) =     -194.05366301

 writing wavefunctions