 vasp.6.2.0 18Jan21 (build Jan 05 2022 15:41:44) complex

 executed on             LinuxIFC date 2025.05.07  17:32:45

 INCAR:
   SYSTEM = routine with relax: pwdword
   ICHARG = 2
   NPAR = 6
   KPAR = 2
   NCORE = 2
   ADDGRID = T
   PREC = Acc
   ENCUT = 600
   METAGGA = R2SCAN
   LASPH = .TRUE.
   LMIXTAU = .FALSE.
   ALGO = A
   EDIFF = 1E-9
   NELM = 100
   NELMIN = 6
   IALGO = 38
   LREAL = F
   NSW = 0
   ISIF = -1
   ISMEAR = 0
   SIGMA = 0.02

 POTCAR:    PAW_PBE B 06Sep2000
 POTCAR:    PAW_PBE Mo_sv 02Feb2006
 POTCAR:    PAW_PBE Si 05Jan2001
|           W    W    AA    RRRRR   N    N  II  N    N   GGGG   !!!           |
|           W    W   A  A   R    R  NN   N  II  NN   N  G    G  !!!           |
|           W    W  A    A  R    R  N N  N  II  N N  N  G       !!!           |
|           W WW W  AAAAAA  RRRRR   N  N N  II  N  N N  G  GGG   !            |
|           WW  WW  A    A  R   R   N   NN  II  N   NN  G    G                |
|           W    W  A    A  R    R  N    N  II  N    N   GGGG   !!!           |
|     For optimal performance we recommend to set                             |
|       NCORE = 2 up to number-of-cores-per-socket                            |
|     This setting can greatly improve the performance of VASP for DFT.       |
|     The default, NCORE=1 might be grossly inefficient on modern             |
|     multi-core architectures or massively parallel machines. Do your        |
|     Unfortunately you need to use the default for GW and RPA                |
|     calculations (for HF NCORE is supported but not extensively tested      |
|     yet).                                                                   |

 POTCAR:    PAW_PBE B 06Sep2000
   VRHFIN =B: s2p1

   TITEL  = PAW_PBE B 06Sep2000
   POMASS =   10.811; ZVAL   =    3.000    mass and valenz
   ENMAX  =  318.614; ENMIN  =  238.960 eV

 POTCAR:    PAW_PBE Mo_sv 02Feb2006
   VRHFIN =Mo: 4p5s4d

   TITEL  = PAW_PBE Mo_sv 02Feb2006
   POMASS =   95.940; ZVAL   =   14.000    mass and valenz
   ENMAX  =  242.676; ENMIN  =  182.007 eV

 POTCAR:    PAW_PBE Si 05Jan2001
   VRHFIN =Si: s2p2

   TITEL  = PAW_PBE Si 05Jan2001
   POMASS =   28.085; ZVAL   =    4.000    mass and valenz
   ENMAX  =  245.345; ENMIN  =  184.009 eV

  PAW_PBE B 06Sep2000                   :
  PAW_PBE Mo_sv 02Feb2006               :
  PAW_PBE Si 05Jan2001                  :

 POSCAR: EA125
  positions in direct lattice

 METAGGA = R2SCA    LMAXTAU =  6    LMIXTAU =  F

 ion  position               nearest neighbor table
   1  0.750  0.911  0.161-   3 1.69   7 1.69   9 1.97  11 1.97  10 2.40  14 2.40  16 2.52
   2  0.250  0.089  0.839-   4 1.69   8 1.69   9 1.97  11 1.97  10 2.40  14 2.40  15 2.52
   3  0.911  0.750  0.161-   1 1.69   5 1.69  12 1.97  11 1.97  10 2.40  14 2.40  15 2.52
   4  0.089  0.250  0.839-   2 1.69   6 1.69  12 1.97  11 1.97  10 2.40  14 2.40  16 2.52
   5  0.750  0.589  0.839-   7 1.69   3 1.69  12 1.97  13 1.97  14 2.40  10 2.40  16 2.52
   6  0.250  0.411  0.161-   8 1.69   4 1.69  12 1.97  13 1.97  14 2.40  10 2.40  15 2.52
   7  0.589  0.750  0.839-   5 1.69   1 1.69   9 1.97  13 1.97  14 2.40  10 2.40  15 2.52
   8  0.411  0.250  0.161-   6 1.69   2 1.69   9 1.97  13 1.97  14 2.40  10 2.40  16 2.52
   9  0.500  0.000  0.000-   1 1.97   2 1.97   7 1.97   8 1.97  16 2.62  15 2.62  10 3.35  10 3.35
                            14 3.35  14 3.35
  10  0.000  0.000  0.000-   1 2.40   2 2.40   3 2.40   4 2.40   7 2.40   8 2.40   5 2.40   6 2.40
                             9 3.35  11 3.35  11 3.35   9 3.35  12 3.35  12 3.35  13 3.35  13 3.35
  11  0.000  0.000  0.500-   1 1.97   2 1.97   3 1.97   4 1.97  15 2.62  16 2.62  10 3.35  10 3.35
                            14 3.35  14 3.35
  12  0.000  0.500  0.000-   5 1.97   6 1.97   3 1.97   4 1.97  15 2.62  16 2.62  14 3.35  14 3.35
                            10 3.35  10 3.35
  13  0.500  0.500  0.500-   5 1.97   6 1.97   7 1.97   8 1.97  15 2.62  16 2.62  14 3.35  14 3.35
                            10 3.35  10 3.35
  14  0.500  0.500  0.000-   5 2.40   6 2.40   7 2.40   8 2.40   3 2.40   4 2.40   1 2.40   2 2.40
                            12 3.35  13 3.35  13 3.35  12 3.35   9 3.35   9 3.35  11 3.35  11 3.35
  15  0.250  0.750  0.500-   2 2.52   3 2.52   6 2.52   7 2.52  11 2.62  13 2.62   9 2.62  12 2.62

  16  0.750  0.250  0.500-   1 2.52   4 2.52   5 2.52   8 2.52  11 2.62  13 2.62  12 2.62   9 2.62

  LATTYP: Found a base centered monoclinic cell.
 ALAT       =     8.3222874410
 B/A-ratio  =     1.2599007154
 C/A-ratio  =     0.8042620550
 COS(beta)  =    -0.6216714281

  Lattice vectors:

 A1 = (   6.1732000381,   0.0000000000,  -2.5868641594)
 A2 = (  -2.7314677703,   5.5360168470,  -2.5868641594)
 A3 = (   0.0000000000,   0.0000000000,   6.6933000000)

Analysis of symmetry for initial positions (statically):
 Subroutine PRICEL returns following result:

  LATTYP: Found a simple monoclinic cell.
 ALAT       =     4.1611437205
 B/A-ratio  =     1.2599007154
 C/A-ratio  =     1.2599217640
 COS(beta)  =    -0.0000210484

[...]

   2 primitive cells build up your supercell.

 Routine SETGRP: Setting up the symmetry group for a
 base centered monoclinic supercell.

 Subroutine GETGRP returns: Found  4 space group operations
 (whereof  4 operations were pure point group operations)
 out of a pool of  4 trial point group operations.

The static configuration has the point symmetry C_2h.

Analysis of symmetry for dynamics (positions and initial velocities):
 Subroutine PRICEL returns following result:

  LATTYP: Found a simple monoclinic cell.
 ALAT       =     4.1611437205
 B/A-ratio  =     1.2599007154
 C/A-ratio  =     1.2599217640
 COS(beta)  =    -0.0000210484

  Lattice vectors:

 A1 = (   1.7208661339,   2.7680084235,  -2.5868641594)
 A2 = (   4.4523339042,  -2.7680084235,   0.0000000000)
 A3 = (  -1.7208661339,  -2.7680084235,  -4.1064358406)

   2 primitive cells build up your supercell.

 Routine SETGRP: Setting up the symmetry group for a
 base centered monoclinic supercell.

 Subroutine GETGRP returns: Found  4 space group operations
 (whereof  4 operations were pure point group operations)
 out of a pool of  4 trial point group operations.

The dynamic configuration has the point symmetry C_2h.

 Subroutine INISYM returns: Found  4 space group operations
 (whereof  4 operations are pure point group operations),
 and found     2 'primitive' translations

                                     Primitive cell

  volume of cell :     114.3716

  direct lattice vectors                    reciprocal lattice vectors
     1.720866134  2.768008424 -2.586864159     0.099383526  0.159858127 -0.149403134
     4.452333904 -2.768008424  0.000000000     0.161990539 -0.100709243  0.000000000
    -1.720866134 -2.768008424 -4.106435841    -0.062607013 -0.100703207 -0.149403134

  length of vectors
     4.161143721  5.242627950  5.242715536     0.240318544  0.190744033  0.190740847

  position of ions in fractional coordinates (direct lattice)
     0.500000000  0.839220000  0.839220000
     0.500000000  0.160780000  0.160780000
     0.500000000  0.160780000  0.839220000
     0.500000000  0.839220000  0.160780000
     0.500000000  0.500000000  0.000000000
     0.000000000  0.000000000  0.000000000
     0.500000000  0.000000000  0.500000000
     0.500000000  0.500000000  0.500000000

  ion indices of the primitive-cell ions
   primitive index   ion index
                 1           1
                 2           5
                 3           3
                 4           7
                 5           9
                 6          10
                 7          11
                 8          16

 KPOINTS: EA

Automatic generation of k-mesh.
 Grid dimensions read from file:
 generate k-points for:    7    7    7

 Generating k-lattice:

  Cartesian coordinates                     Fractional coordinates (reciprocal lattice)
     0.023141506  0.011418007  0.000000000     0.142857143  0.000000000  0.000000000
     0.000000000  0.025805041  0.000000000     0.000000000  0.142857143  0.000000000
     0.008943859  0.014386172  0.021343305     0.000000000  0.000000000  0.142857143

  Length of vectors
     0.025805041  0.025805041  0.027248692

  Shift w.r.t. Gamma in fractional coordinates (k-lattice)
     0.000000000  0.000000000  0.000000000

 Subroutine IBZKPT returns following result:

 Found    100 irreducible k-points:

 Following reciprocal coordinates:
            Coordinates               Weight
  0.000000  0.000000  0.000000      1.000000
  0.142857 -0.000000  0.000000      4.000000
  0.285714  0.000000  0.000000      4.000000
  0.428571 -0.000000  0.000000      4.000000
  0.142857  0.142857  0.000000      2.000000
  0.285714  0.142857  0.000000      4.000000
  0.428571  0.142857  0.000000      4.000000
 -0.428571  0.142857  0.000000      4.000000
 -0.285714  0.142857  0.000000      4.000000
 -0.142857  0.142857  0.000000      2.000000
  0.285714  0.285714  0.000000      2.000000
  0.428571  0.285714  0.000000      4.000000
 -0.428571  0.285714  0.000000      4.000000
 -0.285714  0.285714  0.000000      2.000000
  0.428571  0.428571  0.000000      2.000000
 -0.428571  0.428571  0.000000      2.000000
 -0.000000 -0.000000  0.142857      2.000000
  0.142857 -0.000000  0.142857      4.000000
  0.285714  0.000000  0.142857      4.000000
  0.428571 -0.000000  0.142857      4.000000
 -0.428571  0.000000  0.142857      4.000000
 -0.285714  0.000000  0.142857      4.000000
 -0.142857  0.000000  0.142857      4.000000
  0.142857  0.142857  0.142857      2.000000
  0.285714  0.142857  0.142857      4.000000
  0.428571  0.142857  0.142857      4.000000
 -0.428571  0.142857  0.142857      4.000000
 -0.285714  0.142857  0.142857      4.000000
 -0.142857  0.142857  0.142857      4.000000
  0.285714  0.285714  0.142857      2.000000
  0.428571  0.285714  0.142857      4.000000
 -0.428571  0.285714  0.142857      4.000000
 -0.285714  0.285714  0.142857      4.000000
 -0.142857  0.285714  0.142857      4.000000
  0.428571  0.428571  0.142857      2.000000
 -0.428571  0.428571  0.142857      4.000000
 -0.285714  0.428571  0.142857      4.000000
 -0.142857  0.428571  0.142857      4.000000
 -0.428571 -0.428571  0.142857      2.000000
 -0.285714 -0.428571  0.142857      4.000000
 -0.142857 -0.428571  0.142857      4.000000
 -0.285714 -0.285714  0.142857      2.000000
 -0.142857 -0.285714  0.142857      4.000000
 -0.142857 -0.142857  0.142857      2.000000
 -0.000000 -0.000000  0.285714      2.000000
  0.142857  0.000000  0.285714      4.000000
  0.285714 -0.000000  0.285714      4.000000
  0.428571  0.000000  0.285714      4.000000
 -0.428571  0.000000  0.285714      4.000000
 -0.285714 -0.000000  0.285714      4.000000
 -0.142857 -0.000000  0.285714      4.000000
  0.142857  0.142857  0.285714      2.000000
  0.285714  0.142857  0.285714      4.000000
  0.428571  0.142857  0.285714      4.000000
 -0.428571  0.142857  0.285714      4.000000
 -0.285714  0.142857  0.285714      4.000000
 -0.142857  0.142857  0.285714      4.000000
  0.285714  0.285714  0.285714      2.000000
  0.428571  0.285714  0.285714      4.000000
 -0.428571  0.285714  0.285714      4.000000
[...]
[...]
  -0.00000000 -0.00000000  0.28571429       0.006
   0.14285714  0.00000000  0.28571429       0.012
   0.28571429 -0.00000000  0.28571429       0.012
   0.42857143  0.00000000  0.28571429       0.012
  -0.42857143  0.00000000  0.28571429       0.012
  -0.28571429 -0.00000000  0.28571429       0.012
  -0.14285714 -0.00000000  0.28571429       0.012
   0.14285714  0.14285714  0.28571429       0.006
   0.28571429  0.14285714  0.28571429       0.012
   0.42857143  0.14285714  0.28571429       0.012
  -0.42857143  0.14285714  0.28571429       0.012
  -0.28571429  0.14285714  0.28571429       0.012
  -0.14285714  0.14285714  0.28571429       0.012
   0.28571429  0.28571429  0.28571429       0.006
   0.42857143  0.28571429  0.28571429       0.012
  -0.42857143  0.28571429  0.28571429       0.012
[...]
   0.28571429  0.28571429  0.42857143       0.006
   0.42857143  0.28571429  0.42857143       0.012
  -0.42857143  0.28571429  0.42857143       0.012
  -0.28571429  0.28571429  0.42857143       0.012
  -0.14285714  0.28571429  0.42857143       0.012
   0.42857143  0.42857143  0.42857143       0.006
  -0.42857143  0.42857143  0.42857143       0.012
  -0.28571429  0.42857143  0.42857143       0.012
  -0.14285714  0.42857143  0.42857143       0.012
  -0.42857143 -0.42857143  0.42857143       0.006
  -0.28571429 -0.42857143  0.42857143       0.012
  -0.14285714 -0.42857143  0.42857143       0.012
  -0.28571429 -0.28571429  0.42857143       0.006
  -0.14285714 -0.28571429  0.42857143       0.012
  -0.14285714 -0.14285714  0.42857143       0.006

 position of ions in fractional coordinates (direct lattice)
   0.75000000  0.91078000  0.16078000
   0.25000000  0.08922000  0.83922000
   0.91078000  0.75000000  0.16078000
   0.08922000  0.25000000  0.83922000
   0.75000000  0.58922000  0.83922000
   0.25000000  0.41078000  0.16078000
   0.58922000  0.75000000  0.83922000
   0.41078000  0.25000000  0.16078000
   0.50000000  0.00000000  0.00000000
   0.00000000  0.00000000  0.00000000
   0.00000000  0.00000000  0.50000000
   0.00000000  0.50000000  0.00000000
   0.50000000  0.50000000  0.50000000
   0.50000000  0.50000000  0.00000000
   0.25000000  0.75000000  0.50000000
   0.75000000  0.25000000  0.50000000

 position of ions in cartesian coordinates  (Angst):
   2.14213381  5.04209342 -3.22006348
   1.29959846  0.49392342  4.73963517
   3.57382630  4.15201264 -3.22006348
  -0.13209404  1.38400421  4.73963517
   3.02046459  3.26193185  2.15277101
   0.42126768  2.27408500 -0.63319933
   1.58877210  4.15201264  2.15277101
   1.85296017  1.38400421 -0.63319933
   3.08660002  0.00000000 -1.29343208
   0.00000000  0.00000000  0.00000000
   0.00000000  0.00000000  3.34665000
  -1.36573389  2.76800842 -1.29343208
   1.72086613  2.76800842  0.75978584
   1.72086613  2.76800842 -2.58686416
  -0.50530082  4.15201264  0.75978584
   3.94703309  1.38400421  0.75978584

 k-point   1 :   0.0000 0.0000 0.0000  plane waves:    7605
 k-point   2 :   0.1429-0.0000 0.0000  plane waves:    7646
 k-point   3 :   0.2857 0.0000 0.0000  plane waves:    7648
 k-point   4 :   0.4286-0.0000 0.0000  plane waves:    7649
 k-point   5 :   0.1429 0.1429 0.0000  plane waves:    7648
 k-point   6 :   0.2857 0.1429 0.0000  plane waves:    7629
 k-point   7 :   0.4286 0.1429 0.0000  plane waves:    7641
 k-point   8 :  -0.4286 0.1429 0.0000  plane waves:    7639
 k-point   9 :  -0.2857 0.1429 0.0000  plane waves:    7648
 k-point  10 :  -0.1429 0.1429 0.0000  plane waves:    7617
 k-point  11 :   0.2857 0.2857 0.0000  plane waves:    7613
 k-point  12 :   0.4286 0.2857 0.0000  plane waves:    7628
 k-point  13 :  -0.4286 0.2857 0.0000  plane waves:    7645
 k-point  14 :  -0.2857 0.2857 0.0000  plane waves:    7643
 k-point  15 :   0.4286 0.4286 0.0000  plane waves:    7628
 k-point  16 :  -0.4286 0.4286 0.0000  plane waves:    7649
 k-point  17 :  -0.0000-0.0000 0.1429  plane waves:    7617
 k-point  18 :   0.1429-0.0000 0.1429  plane waves:    7648
 k-point  19 :   0.2857 0.0000 0.1429  plane waves:    7639
 k-point  20 :   0.4286-0.0000 0.1429  plane waves:    7641
 k-point  21 :  -0.4286 0.0000 0.1429  plane waves:    7629
 k-point  22 :  -0.2857 0.0000 0.1429  plane waves:    7648
 k-point  23 :  -0.1429 0.0000 0.1429  plane waves:    7646
 k-point  24 :   0.1429 0.1429 0.1429  plane waves:    7650
 k-point  25 :   0.2857 0.1429 0.1429  plane waves:    7635
 k-point  26 :   0.4286 0.1429 0.1429  plane waves:    7635
 k-point  27 :  -0.4286 0.1429 0.1429  plane waves:    7650
 k-point  28 :  -0.2857 0.1429 0.1429  plane waves:    7648
 k-point  29 :  -0.1429 0.1429 0.1429  plane waves:    7653
 k-point  30 :   0.2857 0.2857 0.1429  plane waves:    7632
 k-point  31 :   0.4286 0.2857 0.1429  plane waves:    7634
 k-point  32 :  -0.4286 0.2857 0.1429  plane waves:    7645
 k-point  33 :  -0.2857 0.2857 0.1429  plane waves:    7640
 k-point  34 :  -0.1429 0.2857 0.1429  plane waves:    7652
 k-point  35 :   0.4286 0.4286 0.1429  plane waves:    7628
 k-point  36 :  -0.4286 0.4286 0.1429  plane waves:    7634
 k-point  37 :  -0.2857 0.4286 0.1429  plane waves:    7623
 k-point  38 :  -0.1429 0.4286 0.1429  plane waves:    7639
 k-point  39 :  -0.4286-0.4286 0.1429  plane waves:    7615
 k-point  40 :  -0.2857-0.4286 0.1429  plane waves:    7618
 k-point  41 :  -0.1429-0.4286 0.1429  plane waves:    7621
 k-point  42 :  -0.2857-0.2857 0.1429  plane waves:    7625
 k-point  43 :  -0.1429-0.2857 0.1429  plane waves:    7638
 k-point  44 :  -0.1429-0.1429 0.1429  plane waves:    7633
 k-point  45 :  -0.0000-0.0000 0.2857  plane waves:    7643
 k-point  46 :   0.1429 0.0000 0.2857  plane waves:    7645
 k-point  47 :   0.2857-0.0000 0.2857  plane waves:    7628
 k-point  48 :   0.4286 0.0000 0.2857  plane waves:    7613
 k-point  49 :  -0.4286 0.0000 0.2857  plane waves:    7629
 k-point  50 :  -0.2857-0.0000 0.2857  plane waves:    7647
 k-point  51 :  -0.1429-0.0000 0.2857  plane waves:    7648
 k-point  52 :   0.1429 0.1429 0.2857  plane waves:    7634
 k-point  53 :   0.2857 0.1429 0.2857  plane waves:    7632
 k-point  54 :   0.4286 0.1429 0.2857  plane waves:    7635
 k-point  55 :  -0.4286 0.1429 0.2857  plane waves:    7639
 k-point  56 :  -0.2857 0.1429 0.2857  plane waves:    7652
 k-point  57 :  -0.1429 0.1429 0.2857  plane waves:    7640
 k-point  58 :   0.2857 0.2857 0.2857  plane waves:    7632
 k-point  59 :   0.4286 0.2857 0.2857  plane waves:    7628
 k-point  60 :  -0.4286 0.2857 0.2857  plane waves:    7623
[...]
 k-point  86 :   0.2857 0.2857 0.4286  plane waves:    7613
 k-point  87 :   0.4286 0.2857 0.4286  plane waves:    7618
 k-point  88 :  -0.4286 0.2857 0.4286  plane waves:    7637
 k-point  89 :  -0.2857 0.2857 0.4286  plane waves:    7646
 k-point  90 :  -0.1429 0.2857 0.4286  plane waves:    7616
 k-point  91 :   0.4286 0.4286 0.4286  plane waves:    7624
 k-point  92 :  -0.4286 0.4286 0.4286  plane waves:    7618
 k-point  93 :  -0.2857 0.4286 0.4286  plane waves:    7624
 k-point  94 :  -0.1429 0.4286 0.4286  plane waves:    7618
 k-point  95 :  -0.4286-0.4286 0.4286  plane waves:    7628
 k-point  96 :  -0.2857-0.4286 0.4286  plane waves:    7597
 k-point  97 :  -0.1429-0.4286 0.4286  plane waves:    7621
 k-point  98 :  -0.2857-0.2857 0.4286  plane waves:    7625
 k-point  99 :  -0.1429-0.2857 0.4286  plane waves:    7629
 k-point 100 :  -0.1429-0.1429 0.4286  plane waves:    7650

 maximum and minimum number of plane-waves per node :      3842     3790

 maximum number of plane-waves:      7653
 maximum index in each direction:
   IXMAX=   13   IYMAX=   13   IZMAX=   13
   IXMIN=  -13   IYMIN=  -13   IZMIN=  -13

 parallel 3D FFT for wavefunctions:
    minimum data exchange during FFTs selected (reduces bandwidth)
 parallel 3D FFT for charge:
    minimum data exchange during FFTs selected (reduces bandwidth)

 Broyden mixing: mesh for mixing (old mesh)
   NGX = 27   NGY = 27   NGZ = 27
  (NGX  =108   NGY  =108   NGZ  =108)
  gives a total of  19683 points

 initial charge density was supplied:
 charge density of overlapping atoms calculated
 number of electron     116.0000000 magnetization
 keeping initial charge density in first step

 Maximum index for augmentation-charges        19623 (set IRDMAX)

 First call to EWALD:  gamma=   0.290
 Maximum number of real-space cells 3x 3x 3
 Maximum number of reciprocal cells 3x 3x 3

--------------------------------------- Iteration      1(   1)  ---------------------------------------

 eigenvalue-minimisations  : 15516
 total energy-change (2. order) : 0.1097630E+04  (-0.7568871E+04)
 number of electron     116.0000000 magnetization
 augmentation part      116.0000000 magnetization

 Free energy of the ion-electron system (eV)
  alpha Z        PSCENC =       502.09075296
  Ewald energy   TEWEN  =     -8168.57643192
  -Hartree energ DENC   =     -3540.63389356
  -exchange      EXHF   =         0.00000000
  -V(xc)+E(xc)   XCENC  =       519.05267163
  PAW double counting   =      9417.46121024    -9379.23717351
  entropy T*S    EENTRO =        -0.00067540
  eigenvalues    EBANDS =      -201.71133895
  atomic energy  EATOM  =     11949.18504973
  free energy    TOTEN  =      1097.63017121 eV

  energy without entropy =     1097.63084661  energy(sigma->0) =     1097.63050891

[...]

 eigenvalue-minimisations  : 16296
 total energy-change (2. order) :-0.1311238E+04  (-0.1273657E+04)
 number of electron     116.0000000 magnetization
 augmentation part      116.0000000 magnetization

[...]

 eigenvalue-minimisations  :     0
 total energy-change (2. order) : 0.5857146E-09  (-0.2766870E-08)
 number of electron     116.0000001 magnetization
 augmentation part       14.2930500 magnetization

[...]

--------------------------------------- Iteration      1(  43)  ---------------------------------------

 eigenvalue-minimisations  :     0
 total energy-change (2. order) :-0.3856258E-09  (-0.1027523E-10)
 number of electron     116.0000001 magnetization
 augmentation part       14.2930498 magnetization

 Free energy of the ion-electron system (eV)
  alpha Z        PSCENC =       502.09075296
  Ewald energy   TEWEN  =     -8168.57643192
  -Hartree energ DENC   =     -3476.26926196
  -exchange      EXHF   =         0.00000000
  -V(xc)+E(xc)   XCENC  =       531.61050502
  PAW double counting   =     14682.43270620   -14662.00540100
  entropy T*S    EENTRO =        -0.00227789
  eigenvalues    EBANDS =     -1573.01258072
  atomic energy  EATOM  =     11949.18504973
  free energy    TOTEN  =      -214.54693958 eV

  energy without entropy =     -214.54466170  energy(sigma->0) =     -214.54580064

  average scaling for gradient   0.7879

 average (electrostatic) potential at core
  the test charge radii are     0.7672  1.0818  0.9892
  (the norm of the test charge is              1.0000)
       1 -27.1071       2 -27.1071       3 -27.1071       4 -27.1071       5 -27.1071
       6 -27.1071       7 -27.1071       8 -27.1071       9 -79.3920      10 -80.1948
      11 -79.3920      12 -79.3920      13 -79.3920      14 -80.1948      15 -86.1406
      16 -86.1406

 E-fermi :   6.9621     XC(G=0): -11.6709     alpha+bet :-14.1743

 Fermi energy:         6.9620967079

 k-point     1 :       0.0000    0.0000    0.0000
  band No.  band energies     occupation
      1     -56.1712      2.00000
      2     -56.1701      2.00000
      3     -55.6032      2.00000
      4     -55.6016      2.00000
      5     -55.6016      2.00000
      6     -55.6003      2.00000
      7     -29.8396      2.00000
      8     -29.7066      2.00000
      9     -29.6311      2.00000
     10     -29.6311      2.00000
     11     -29.5442      2.00000
     12     -29.4665      2.00000
     13     -29.4665      2.00000
     14     -29.4657      2.00000
     15     -29.3862      2.00000
     16     -29.3862      2.00000
     17     -29.1742      2.00000
     18     -29.1259      2.00000
     19     -29.1258      2.00000
     20     -29.0843      2.00000
     21     -28.9285      2.00000
     22     -28.9279      2.00000
     23     -28.9279      2.00000
     24     -28.9236      2.00000
     25      -7.4325      2.00000
     26      -5.2351      2.00000
     27      -3.1056      2.00000
     28      -3.1055      2.00000
     29      -2.9268      2.00000
     30      -1.3384      2.00000
     31      -0.3186      2.00000
     32      -0.1711      2.00000
     33      -0.1479      2.00000
     34       0.3178      2.00000
     35       0.3181      2.00000
     36       0.9408      2.00000
     37       0.9409      2.00000
     38       2.1757      2.00000
     39       2.1757      2.00000
     40       2.8559      2.00000
     41       3.3262      2.00000
     42       3.8066      2.00000
     43       4.3653      2.00000
     44       4.3654      2.00000
     45       4.5855      2.00000
     46       4.9101      2.00000
     47       5.0022      2.00000
     48       5.0064      2.00000
     49       5.0588      2.00000
     50       5.0591      2.00000
     51       5.1119      2.00000
     52       5.1144      2.00000
     53       5.2189      2.00000
     54       5.2190      2.00000
     55       5.8259      2.00000
     56       6.5335      2.00000
     57       6.5336      2.00000
     58       6.8176      2.00000
     59       6.8177      2.00000
     60       6.8506      2.00000
     61       7.0821      0.00000
     62       7.1634      0.00000
     63       7.1714      0.00000
     64       7.8823      0.00000
     65       8.2924      0.00000
     66       8.5034      0.00000
     67       8.5035      0.00000
     68       8.7351      0.00000
     69       9.3769      0.00000
     70       9.3795      0.00000
     71       9.6771      0.00000
     72      11.4032      0.00000

[...]

 k-point   100 :      -0.1429   -0.1429    0.4286
  band No.  band energies     occupation
      1     -56.1709      2.00000
      2     -56.1702      2.00000
      3     -55.6027      2.00000
      4     -55.6017      2.00000
      5     -55.6016      2.00000
      6     -55.6008      2.00000
      7     -29.7969      2.00000
      8     -29.7206      2.00000
      9     -29.6202      2.00000
     10     -29.5802      2.00000
     11     -29.5623      2.00000
     12     -29.5003      2.00000
     13     -29.4646      2.00000
     14     -29.4445      2.00000
     15     -29.4276      2.00000
     16     -29.3958      2.00000
     17     -29.1569      2.00000
     18     -29.1281      2.00000
     19     -29.1271      2.00000
     20     -29.1008      2.00000
     21     -28.9345      2.00000
     22     -28.9315      2.00000
     23     -28.9285      2.00000
     24     -28.9272      2.00000
     25      -6.9955      2.00000
     26      -5.9586      2.00000
     27      -3.2747      2.00000
     28      -2.9867      2.00000
     29      -1.7960      2.00000
     30      -1.3354      2.00000
     31      -1.2095      2.00000
     32      -0.1580      2.00000
     33       0.2926      2.00000
     34       0.4476      2.00000
     35       0.7138      2.00000
     36       1.2980      2.00000
     37       1.3584      2.00000
     38       1.7908      2.00000
     39       2.0432      2.00000
     40       2.2878      2.00000
     41       2.4230      2.00000
     42       3.0924      2.00000
     43       3.1953      2.00000
     44       3.3814      2.00000
     45       3.5694      2.00000
     46       3.9096      2.00000
     47       4.7983      2.00000
     48       4.9272      2.00000
     49       5.3554      2.00000
     50       5.5758      2.00000
     51       5.7233      2.00000
     52       5.8381      2.00000
     53       5.8436      2.00000
     54       5.9430      2.00000
     55       6.3426      2.00000
     56       6.4353      2.00000
     57       6.4698      2.00000
     58       7.1577      0.00000
     59       7.1976      0.00000
     60       7.3214      0.00000
     61       7.3886      0.00000
     62       7.5660      0.00000
     63       8.1554      0.00000
     64       8.3529      0.00000
     65       8.5345      0.00000
     66       8.6900      0.00000
     67       8.7527      0.00000
     68       8.9734      0.00000
     69       9.1006      0.00000
     70       9.1804      0.00000
     71       9.4246      0.00000
     72       9.9214      0.00000

 soft charge-density along one line, spin component           1
         0         1         2         3         4         5         6         7         8         9
 total charge-density along one line

------------------------ aborting loop because EDIFF is reached ----------------------------------------

  FREE ENERGIE OF THE ION-ELECTRON SYSTEM (eV)
  free  energy   TOTEN  =      -214.54693958 eV

  energy  without entropy=     -214.54466170  energy(sigma->0) =     -214.54580064

 writing wavefunctions