 vasp.6.2.0 18Jan21 (build Jan 05 2022 15:41:44) complex

 executed on             LinuxIFC date 2025.05.07  17:13:57

 INCAR:
   SYSTEM = routine with relax: pwdword
   ICHARG = 2
   NPAR = 6
   KPAR = 2
   NCORE = 2
   ADDGRID = T
   PREC = Acc
   ENCUT = 600
   METAGGA = R2SCAN
   LASPH = .TRUE.
   LMIXTAU = .FALSE.
   ALGO = A
   EDIFF = 1E-9
   NELM = 100
   NELMIN = 6
   IALGO = 38
   LREAL = F
   NSW = 0
   ISIF = -1
   ISMEAR = 0
   SIGMA = 0.02

 POTCAR:    PAW_PBE B 06Sep2000
 POTCAR:    PAW_PBE Mo_sv 02Feb2006
 POTCAR:    PAW_PBE Si 05Jan2001
|           W    W    AA    RRRRR   N    N  II  N    N   GGGG   !!!           |
|           W    W   A  A   R    R  NN   N  II  NN   N  G    G  !!!           |
|           W    W  A    A  R    R  N N  N  II  N N  N  G       !!!           |
|           W WW W  AAAAAA  RRRRR   N  N N  II  N  N N  G  GGG   !            |
|           WW  WW  A    A  R   R   N   NN  II  N   NN  G    G                |
|           W    W  A    A  R    R  N    N  II  N    N   GGGG   !!!           |
|     For optimal performance we recommend to set                             |
|       NCORE = 2 up to number-of-cores-per-socket                            |
|     This setting can greatly improve the performance of VASP for DFT.       |
|     The default, NCORE=1 might be grossly inefficient on modern             |
|     multi-core architectures or massively parallel machines. Do your        |
|     Unfortunately you need to use the default for GW and RPA                |
|     calculations (for HF NCORE is supported but not extensively tested      |
|     yet).                                                                   |

 POTCAR:    PAW_PBE B 06Sep2000
   VRHFIN =B: s2p1

   TITEL  = PAW_PBE B 06Sep2000
   POMASS =   10.811; ZVAL   =    3.000    mass and valenz
   ENMAX  =  318.614; ENMIN  =  238.960 eV

 POTCAR:    PAW_PBE Mo_sv 02Feb2006
   VRHFIN =Mo: 4p5s4d

   TITEL  = PAW_PBE Mo_sv 02Feb2006
   POMASS =   95.940; ZVAL   =   14.000    mass and valenz
   ENMAX  =  242.676; ENMIN  =  182.007 eV

 POTCAR:    PAW_PBE Si 05Jan2001
   VRHFIN =Si: s2p2

   TITEL  = PAW_PBE Si 05Jan2001
   POMASS =   28.085; ZVAL   =    4.000    mass and valenz
   ENMAX  =  245.345; ENMIN  =  184.009 eV

  PAW_PBE B 06Sep2000                   :
  PAW_PBE Mo_sv 02Feb2006               :
  PAW_PBE Si 05Jan2001                  :

 POSCAR: EA112
  positions in direct lattice

 METAGGA = R2SCA    LMAXTAU =  6    LMIXTAU =  F

 ion  position               nearest neighbor table
   1  0.500  0.500  0.500-   6 1.99   8 1.99   7 1.99   5 1.99  12 1.99  11 1.99
   2  0.500  0.000  0.000-   5 1.99   7 1.99   6 1.99   8 1.99  10 1.99   9 1.99
   3  0.000  0.000  0.500-   6 1.99   8 1.99   5 1.99   7 1.99  12 1.99  11 1.99
   4  0.000  0.500  0.000-   5 1.99   7 1.99   8 1.99   6 1.99  10 1.99   9 1.99
   5  0.250  0.250  0.000-   2 1.99   4 1.99   1 1.99   3 1.99   6 2.81   6 2.81   8 2.81   8 2.81
                             9 2.82  10 2.82  11 2.82  11 2.82  12 2.82  12 2.82  10 2.82   9 2.82
   6  0.750  0.250  0.500-   1 1.99   3 1.99   4 1.99   2 1.99   9 2.78  12 2.78  11 2.78  10 2.78
                             5 2.81   5 2.81   7 2.81   7 2.81  11 2.85  12 2.85  10 2.85   9 2.85
   7  0.750  0.750  0.000-   2 1.99   4 1.99   3 1.99   1 1.99   8 2.81   8 2.81   6 2.81   6 2.81
                            10 2.82   9 2.82  12 2.82  12 2.82  11 2.82  11 2.82  10 2.82   9 2.82
   8  0.250  0.750  0.500-   1 1.99   3 1.99   2 1.99   4 1.99  10 2.78  12 2.78  11 2.78   9 2.78
                             7 2.81   7 2.81   5 2.81   5 2.81  12 2.85  11 2.85   9 2.85  10 2.85
   9  0.744  0.244  0.987-   4 1.99   2 1.99   6 2.78   8 2.78  12 2.81  11 2.81  11 2.81  12 2.81
                             5 2.82   7 2.82   7 2.82   5 2.82   8 2.85   6 2.85
  10  0.256  0.756  0.013-   4 1.99   2 1.99   8 2.78   6 2.78  11 2.81  12 2.81  11 2.81  12 2.81
                             7 2.82   5 2.82   7 2.82   5 2.82   6 2.85   8 2.85
  11  0.244  0.256  0.500-   1 1.99   3 1.99   6 2.78   8 2.78   9 2.81  10 2.81  10 2.81   9 2.81
                             5 2.82   5 2.82   7 2.82   7 2.82   8 2.85   6 2.85
  12  0.756  0.744  0.500-   1 1.99   3 1.99   6 2.78   8 2.78   9 2.81  10 2.81   9 2.81  10 2.81
                             7 2.82   7 2.82   5 2.82   5 2.82   6 2.85   8 2.85

  LATTYP: Found a body centered tetragonal cell.
 ALAT       =     5.6217618673
 C/A-ratio  =     1.4186263930

  Lattice vectors:

 A1 = (   4.8711131691,   0.0000000000,  -2.8240263057)
 A2 = (  -1.6169294943,   4.5949192067,  -2.8240263057)
 A3 = (   0.0000000000,   0.0000000000,   5.6305300000)

Analysis of symmetry for initial positions (statically):
 Subroutine PRICEL returns:
 Original cell was already a primitive cell.

 Routine SETGRP: Setting up the symmetry group for a
 body centered tetragonal supercell.

 Subroutine GETGRP returns: Found  4 space group operations
 (whereof  2 operations were pure point group operations)
 out of a pool of 16 trial point group operations.

The static configuration has the point symmetry S_2 .
 The point group associated with its full space group is C_2h.

Analysis of symmetry for dynamics (positions and initial velocities):
 Subroutine PRICEL returns:
 Original cell was already a primitive cell.

 Routine SETGRP: Setting up the symmetry group for a
 body centered tetragonal supercell.

 Subroutine GETGRP returns: Found  4 space group operations
 (whereof  2 operations were pure point group operations)
 out of a pool of 16 trial point group operations.

The dynamic configuration has the point symmetry S_2 .
 The point group associated with its full space group is C_2h.

 Subroutine INISYM returns: Found  4 space group operations
 (whereof  2 operations are pure point group operations),
 and found     1 'primitive' translations

                                     Primitive cell

  volume of cell :     126.0246

  direct lattice vectors                    reciprocal lattice vectors
     4.871113169  0.000000000 -2.824026306     0.205291884  0.072241205  0.000000000
    -1.616929494  4.594919207 -2.824026306     0.000000000  0.217631683  0.000000000
     0.000000000  0.000000000  5.630530000     0.102965384  0.145387497  0.177603174

  length of vectors
     5.630530000  5.630530000  5.630530000     0.217631683  0.217631683  0.251559698

  position of ions in fractional coordinates (direct lattice)
     0.500000000  0.500000000  0.500000000
     0.500000000  0.000000000  0.000000000
     0.000000000  0.000000000  0.500000000
     0.000000000  0.500000000  0.000000000
     0.250000000  0.250000000  0.000000000
     0.750000000  0.250000000  0.500000000
     0.750000000  0.750000000  0.000000000
     0.250000000  0.750000000  0.500000000
     0.743560000  0.243560000  0.987110000
     0.256440000  0.756440000  0.012890000
     0.243560000  0.256440000  0.500000000
     0.756440000  0.743560000  0.500000000

  ion indices of the primitive-cell ions
   primitive index   ion index
                 1           1
                 2           2
                 3           3
                 4           4
                 5           5
                 6           6
                 7           7
                 8           8
                 9           9
                10          10
                11          11
                12          12

 KPOINTS: EA

Automatic generation of k-mesh.
 Grid dimensions read from file:
 generate k-points for:    8    8    9

 Generating k-lattice:

  Cartesian coordinates                     Fractional coordinates (reciprocal lattice)
     0.025661486  0.009030151  0.000000000     0.125000000  0.000000000  0.000000000
     0.000000000  0.027203960  0.000000000     0.000000000  0.125000000  0.000000000
     0.011440598  0.016154166  0.019733686     0.000000000 -0.000000000  0.111111111

  Length of vectors
     0.027203960  0.027203960  0.027951078

  Shift w.r.t. Gamma in fractional coordinates (k-lattice)
     0.000000000  0.000000000  0.000000000

 WARNING: IBZKPT: internal override: KBLOWUP is changed to .FALSE.
      ... skipping the blow-up phase ...

 Subroutine IBZKPT returns following result:

 Found    165 irreducible k-points:

 Following reciprocal coordinates:
            Coordinates               Weight
  0.000000  0.000000  0.000000      1.000000
  0.125000  0.000000  0.000000      4.000000
  0.250000  0.000000  0.000000      4.000000
  0.375000  0.000000  0.000000      4.000000
  0.500000  0.000000  0.000000      2.000000
  0.125000  0.125000  0.000000      2.000000
  0.250000  0.125000  0.000000      4.000000
  0.375000  0.125000  0.000000      4.000000
  0.500000  0.125000  0.000000      4.000000
 -0.375000  0.125000  0.000000      4.000000
 -0.250000  0.125000  0.000000      4.000000
 -0.125000  0.125000  0.000000      2.000000
  0.250000  0.250000  0.000000      2.000000
  0.375000  0.250000  0.000000      4.000000
  0.500000  0.250000  0.000000      4.000000
 -0.375000  0.250000  0.000000      4.000000
 -0.250000  0.250000  0.000000      2.000000
  0.375000  0.375000  0.000000      2.000000
  0.500000  0.375000  0.000000      4.000000
 -0.375000  0.375000  0.000000      2.000000
  0.500000  0.500000  0.000000      1.000000
  0.000000  0.000000  0.111111      2.000000
  0.125000  0.000000  0.111111      4.000000
  0.250000 -0.000000  0.111111      4.000000
  0.375000  0.000000  0.111111      4.000000
  0.500000  0.000000  0.111111      4.000000
 -0.375000  0.000000  0.111111      4.000000
 -0.250000 -0.000000  0.111111      4.000000
 -0.125000  0.000000  0.111111      4.000000
  0.125000  0.125000  0.111111      2.000000
  0.250000  0.125000  0.111111      4.000000
  0.375000  0.125000  0.111111      4.000000
  0.500000  0.125000  0.111111      4.000000
 -0.375000  0.125000  0.111111      4.000000
 -0.250000  0.125000  0.111111      4.000000
 -0.125000  0.125000  0.111111      4.000000
  0.250000  0.250000  0.111111      2.000000
  0.375000  0.250000  0.111111      4.000000
  0.500000  0.250000  0.111111      4.000000
 -0.375000  0.250000  0.111111      4.000000
 -0.250000  0.250000  0.111111      4.000000
 -0.125000  0.250000  0.111111      4.000000
  0.375000  0.375000  0.111111      2.000000
  0.500000  0.375000  0.111111      4.000000
 -0.375000  0.375000  0.111111      4.000000
 -0.250000  0.375000  0.111111      4.000000
 -0.125000  0.375000  0.111111      4.000000
  0.500000  0.500000  0.111111      2.000000
 -0.375000  0.500000  0.111111      4.000000
 -0.250000  0.500000  0.111111      4.000000
 -0.125000  0.500000  0.111111      4.000000
 -0.375000 -0.375000  0.111111      2.000000
 -0.250000 -0.375000  0.111111      4.000000
 -0.125000 -0.375000  0.111111      4.000000
 -0.250000 -0.250000  0.111111      2.000000
 -0.125000 -0.250000  0.111111      4.000000
 -0.125000 -0.125000  0.111111      2.000000
 -0.000000  0.000000  0.222222      2.000000
  0.125000  0.000000  0.222222      4.000000
  0.250000  0.000000  0.222222      4.000000
[...]
  0.375000  0.375000  0.444444      2.000000
  0.500000  0.375000  0.444444      4.000000
 -0.375000  0.375000  0.444444      4.000000
[...]
   0.25000000  0.25000000  0.00000000       0.003
   0.37500000  0.25000000  0.00000000       0.007
   0.50000000  0.25000000  0.00000000       0.007
  -0.37500000  0.25000000  0.00000000       0.007
  -0.25000000  0.25000000  0.00000000       0.003
   0.37500000  0.37500000  0.00000000       0.003
   0.50000000  0.37500000  0.00000000       0.007
  -0.37500000  0.37500000  0.00000000       0.003
   0.50000000  0.50000000  0.00000000       0.002
   0.00000000  0.00000000  0.11111111       0.003
   0.12500000  0.00000000  0.11111111       0.007
   0.25000000 -0.00000000  0.11111111       0.007
   0.37500000  0.00000000  0.11111111       0.007
   0.50000000  0.00000000  0.11111111       0.007
  -0.37500000  0.00000000  0.11111111       0.007
  -0.25000000 -0.00000000  0.11111111       0.007
  -0.12500000  0.00000000  0.11111111       0.007
   0.12500000  0.12500000  0.11111111       0.003
   0.25000000  0.12500000  0.11111111       0.007
   0.37500000  0.12500000  0.11111111       0.007
   0.50000000  0.12500000  0.11111111       0.007
  -0.37500000  0.12500000  0.11111111       0.007
  -0.25000000  0.12500000  0.11111111       0.007
  -0.12500000  0.12500000  0.11111111       0.007
   0.25000000  0.25000000  0.11111111       0.003
   0.37500000  0.25000000  0.11111111       0.007
   0.50000000  0.25000000  0.11111111       0.007
  -0.37500000  0.25000000  0.11111111       0.007
  -0.25000000  0.25000000  0.11111111       0.007
  -0.12500000  0.25000000  0.11111111       0.007
   0.37500000  0.37500000  0.11111111       0.003
   0.50000000  0.37500000  0.11111111       0.007
  -0.37500000  0.37500000  0.11111111       0.007
  -0.25000000  0.37500000  0.11111111       0.007
  -0.12500000  0.37500000  0.11111111       0.007
   0.50000000  0.50000000  0.11111111       0.003
  -0.37500000  0.50000000  0.11111111       0.007
  -0.25000000  0.50000000  0.11111111       0.007
  -0.12500000  0.50000000  0.11111111       0.007
  -0.37500000 -0.37500000  0.11111111       0.003
  -0.25000000 -0.37500000  0.11111111       0.007
  -0.12500000 -0.37500000  0.11111111       0.007
  -0.25000000 -0.25000000  0.11111111       0.003
  -0.12500000 -0.25000000  0.11111111       0.007
  -0.12500000 -0.12500000  0.11111111       0.003
  -0.00000000  0.00000000  0.22222222       0.003
   0.12500000  0.00000000  0.22222222       0.007
   0.25000000  0.00000000  0.22222222       0.007
[...]
   0.37500000  0.37500000  0.44444444       0.003
   0.50000000  0.37500000  0.44444444       0.007
  -0.37500000  0.37500000  0.44444444       0.007
  -0.25000000  0.37500000  0.44444444       0.007
  -0.12500000  0.37500000  0.44444444       0.007
   0.50000000  0.50000000  0.44444444       0.003
  -0.37500000  0.50000000  0.44444444       0.007
  -0.25000000  0.50000000  0.44444444       0.007
  -0.12500000  0.50000000  0.44444444       0.007
  -0.37500000 -0.37500000  0.44444444       0.003
  -0.25000000 -0.37500000  0.44444444       0.007
  -0.12500000 -0.37500000  0.44444444       0.007
  -0.25000000 -0.25000000  0.44444444       0.003
  -0.12500000 -0.25000000  0.44444444       0.007
  -0.12500000 -0.12500000  0.44444444       0.003

 position of ions in fractional coordinates (direct lattice)
   0.50000000  0.50000000  0.50000000
   0.50000000  0.00000000  0.00000000
   0.00000000  0.00000000  0.50000000
   0.00000000  0.50000000  0.00000000
   0.25000000  0.25000000  0.00000000
   0.75000000  0.25000000  0.50000000
   0.75000000  0.75000000  0.00000000
   0.25000000  0.75000000  0.50000000
   0.74356000  0.24356000  0.98711000
   0.25644000  0.75644000  0.01289000
   0.24356000  0.25644000  0.50000000
   0.75644000  0.74356000  0.50000000

 position of ions in cartesian coordinates  (Angst):
   1.62709184  2.29745960 -0.00876131
   2.43555658  0.00000000 -1.41201315
   0.00000000  0.00000000  2.81526500
  -0.80846475  2.29745960 -1.41201315
   0.81354592  1.14872980 -1.41201315
   3.24910250  1.14872980 -0.00876131
   2.44063776  3.44618941 -4.23603946
   0.00508117  3.44618941 -0.00876131
   3.22814556  1.11913852  2.77029962
   0.02603811  3.47578068 -2.78782223
   0.77176292  1.17832108  1.40325185
   2.48242075  3.41659813 -1.42077446

 k-point   1 :   0.0000 0.0000 0.0000  plane waves:    4279
 k-point   2 :   0.1250 0.0000 0.0000  plane waves:    4210
 k-point   3 :   0.2500 0.0000 0.0000  plane waves:    4205
 k-point   4 :   0.3750 0.0000 0.0000  plane waves:    4207
 k-point   5 :   0.5000 0.0000 0.0000  plane waves:    4186
 k-point   6 :   0.1250 0.1250 0.0000  plane waves:    4204
 k-point   7 :   0.2500 0.1250 0.0000  plane waves:    4212
 k-point   8 :   0.3750 0.1250 0.0000  plane waves:    4214
 k-point   9 :   0.5000 0.1250 0.0000  plane waves:    4215
 k-point  10 :  -0.3750 0.1250 0.0000  plane waves:    4204
 k-point  11 :  -0.2500 0.1250 0.0000  plane waves:    4199
 k-point  12 :  -0.1250 0.1250 0.0000  plane waves:    4208
 k-point  13 :   0.2500 0.2500 0.0000  plane waves:    4197
 k-point  14 :   0.3750 0.2500 0.0000  plane waves:    4212
 k-point  15 :   0.5000 0.2500 0.0000  plane waves:    4202
 k-point  16 :  -0.3750 0.2500 0.0000  plane waves:    4191
 k-point  17 :  -0.2500 0.2500 0.0000  plane waves:    4206
 k-point  18 :   0.3750 0.3750 0.0000  plane waves:    4215
 k-point  19 :   0.5000 0.3750 0.0000  plane waves:    4205
 k-point  20 :  -0.3750 0.3750 0.0000  plane waves:    4188
 k-point  21 :   0.5000 0.5000 0.0000  plane waves:    4192
 k-point  22 :   0.0000 0.0000 0.1111  plane waves:    4200
 k-point  23 :   0.1250 0.0000 0.1111  plane waves:    4200
 k-point  24 :   0.2500-0.0000 0.1111  plane waves:    4208
 k-point  25 :   0.3750 0.0000 0.1111  plane waves:    4215
 k-point  26 :   0.5000 0.0000 0.1111  plane waves:    4213
 k-point  27 :  -0.3750 0.0000 0.1111  plane waves:    4213
 k-point  28 :  -0.2500-0.0000 0.1111  plane waves:    4200
 k-point  29 :  -0.1250 0.0000 0.1111  plane waves:    4204
 k-point  30 :   0.1250 0.1250 0.1111  plane waves:    4197
 k-point  31 :   0.2500 0.1250 0.1111  plane waves:    4198
 k-point  32 :   0.3750 0.1250 0.1111  plane waves:    4217
 k-point  33 :   0.5000 0.1250 0.1111  plane waves:    4204
 k-point  34 :  -0.3750 0.1250 0.1111  plane waves:    4196
 k-point  35 :  -0.2500 0.1250 0.1111  plane waves:    4201
 k-point  36 :  -0.1250 0.1250 0.1111  plane waves:    4199
 k-point  37 :   0.2500 0.2500 0.1111  plane waves:    4206
 k-point  38 :   0.3750 0.2500 0.1111  plane waves:    4208
 k-point  39 :   0.5000 0.2500 0.1111  plane waves:    4205
 k-point  40 :  -0.3750 0.2500 0.1111  plane waves:    4192
 k-point  41 :  -0.2500 0.2500 0.1111  plane waves:    4197
 k-point  42 :  -0.1250 0.2500 0.1111  plane waves:    4210
 k-point  43 :   0.3750 0.3750 0.1111  plane waves:    4211
 k-point  44 :   0.5000 0.3750 0.1111  plane waves:    4205
 k-point  45 :  -0.3750 0.3750 0.1111  plane waves:    4204
 k-point  46 :  -0.2500 0.3750 0.1111  plane waves:    4199
 k-point  47 :  -0.1250 0.3750 0.1111  plane waves:    4213
 k-point  48 :   0.5000 0.5000 0.1111  plane waves:    4204
 k-point  49 :  -0.3750 0.5000 0.1111  plane waves:    4210
 k-point  50 :  -0.2500 0.5000 0.1111  plane waves:    4217
 k-point  51 :  -0.1250 0.5000 0.1111  plane waves:    4214
 k-point  52 :  -0.3750-0.3750 0.1111  plane waves:    4207
 k-point  53 :  -0.2500-0.3750 0.1111  plane waves:    4204
 k-point  54 :  -0.1250-0.3750 0.1111  plane waves:    4205
 k-point  55 :  -0.2500-0.2500 0.1111  plane waves:    4201
 k-point  56 :  -0.1250-0.2500 0.1111  plane waves:    4202
 k-point  57 :  -0.1250-0.1250 0.1111  plane waves:    4211
 k-point  58 :  -0.0000 0.0000 0.2222  plane waves:    4206
 k-point  59 :   0.1250 0.0000 0.2222  plane waves:    4191
 k-point  60 :   0.2500 0.0000 0.2222  plane waves:    4207
[...]
 k-point 151 :   0.3750 0.3750 0.4444  plane waves:    4210
 k-point 152 :   0.5000 0.3750 0.4444  plane waves:    4199
 k-point 153 :  -0.3750 0.3750 0.4444  plane waves:    4200
 k-point 154 :  -0.2500 0.3750 0.4444  plane waves:    4209
 k-point 155 :  -0.1250 0.3750 0.4444  plane waves:    4207
 k-point 156 :   0.5000 0.5000 0.4444  plane waves:    4208
 k-point 157 :  -0.3750 0.5000 0.4444  plane waves:    4202
 k-point 158 :  -0.2500 0.5000 0.4444  plane waves:    4202
 k-point 159 :  -0.1250 0.5000 0.4444  plane waves:    4216
 k-point 160 :  -0.3750-0.3750 0.4444  plane waves:    4193
 k-point 161 :  -0.2500-0.3750 0.4444  plane waves:    4191
 k-point 162 :  -0.1250-0.3750 0.4444  plane waves:    4213
 k-point 163 :  -0.2500-0.2500 0.4444  plane waves:    4203
 k-point 164 :  -0.1250-0.2500 0.4444  plane waves:    4206
 k-point 165 :  -0.1250-0.1250 0.4444  plane waves:    4188

 maximum and minimum number of plane-waves per node :      2154     2076

 maximum number of plane-waves:      4279
 maximum index in each direction:
   IXMAX=   11   IYMAX=   11   IZMAX=   11
   IXMIN=  -11   IYMIN=  -11   IZMIN=  -11

 parallel 3D FFT for wavefunctions:
    minimum data exchange during FFTs selected (reduces bandwidth)
 parallel 3D FFT for charge:
    minimum data exchange during FFTs selected (reduces bandwidth)

 Broyden mixing: mesh for mixing (old mesh)
   NGX = 23   NGY = 23   NGZ = 23
  (NGX  = 96   NGY  = 96   NGZ  = 96)
  gives a total of  12167 points

 initial charge density was supplied:
 charge density of overlapping atoms calculated
 number of electron      84.0000000 magnetization
 keeping initial charge density in first step

 Maximum index for augmentation-charges        24857 (set IRDMAX)

 First call to EWALD:  gamma=   0.354
 Maximum number of real-space cells 3x 3x 3
 Maximum number of reciprocal cells 3x 3x 3

--------------------------------------- Iteration      1(   1)  ---------------------------------------

 eigenvalue-minimisations  : 17880
 total energy-change (2. order) : 0.7779751E+03  (-0.5624733E+04)
 number of electron      84.0000000 magnetization
 augmentation part       84.0000000 magnetization

 Free energy of the ion-electron system (eV)
  alpha Z        PSCENC =       434.53034615
  Ewald energy   TEWEN  =     -6681.53669628
  -Hartree energ DENC   =     -1911.44026201
  -exchange      EXHF   =         0.00000000
  -V(xc)+E(xc)   XCENC  =       333.13245203
  PAW double counting   =      6444.67582193    -6389.50304870
  entropy T*S    EENTRO =        -0.00036876
  eigenvalues    EBANDS =       402.04209527
  atomic energy  EATOM  =      8146.07472429
  free energy    TOTEN  =       777.97506392 eV

  energy without entropy =      777.97543267  energy(sigma->0) =      777.97524829

[...]

 eigenvalue-minimisations  : 20028
 total energy-change (2. order) :-0.9345487E+03  (-0.9157139E+03)
 number of electron      84.0000000 magnetization
 augmentation part       84.0000000 magnetization

[...]

 eigenvalue-minimisations  :     0
 total energy-change (2. order) : 0.2726665E-08  (-0.1493240E-09)
 number of electron      84.0000001 magnetization
 augmentation part        9.0666890 magnetization

[...]

--------------------------------------- Iteration      1(  33)  ---------------------------------------

 eigenvalue-minimisations  :     0
 total energy-change (2. order) :-0.1418812E-09  (-0.8945080E-10)
 number of electron      84.0000001 magnetization
 augmentation part        9.0666885 magnetization

 Free energy of the ion-electron system (eV)
  alpha Z        PSCENC =       434.53034615
  Ewald energy   TEWEN  =     -6681.53669628
  -Hartree energ DENC   =     -1857.55447066
  -exchange      EXHF   =         0.00000000
  -V(xc)+E(xc)   XCENC  =       343.70991452
  PAW double counting   =     13691.38102645   -13650.12594881
  entropy T*S    EENTRO =        -0.00141093
  eigenvalues    EBANDS =      -583.59735075
  atomic energy  EATOM  =      8146.07472429
  free energy    TOTEN  =      -157.11986603 eV

  energy without entropy =     -157.11845510  energy(sigma->0) =     -157.11916057

  average scaling for gradient   0.9659

 average (electrostatic) potential at core
  the test charge radii are     0.7672  1.0818  0.9892
  (the norm of the test charge is              1.0000)
       1 -21.2517       2 -21.2515       3 -21.2517       4 -21.2515       5 -73.4560
       6 -73.4526       7 -73.4560       8 -73.4526       9 -80.4324      10 -80.4324
      11 -80.4324      12 -80.4324

 E-fermi :  13.3640     XC(G=0): -14.0327     alpha+bet :-21.0523

 Fermi energy:        13.3639824833

 k-point     1 :       0.0000    0.0000    0.0000
  band No.  band energies     occupation
      1     -49.8331      2.00000
      2     -49.7268      2.00000
      3     -49.7241      2.00000
      4     -49.6160      2.00000
      5     -24.1360      2.00000
      6     -24.1359      2.00000
      7     -24.0002      2.00000
      8     -23.9991      2.00000
      9     -23.1568      2.00000
     10     -23.1385      2.00000
     11     -23.1373      2.00000
     12     -23.0586      2.00000
     13     -23.0572      2.00000
     14     -22.9870      2.00000
     15     -22.9868      2.00000
     16     -22.9226      2.00000
     17      -1.8450      2.00000
     18       0.8659      2.00000
     19       1.6533      2.00000
     20       1.6534      2.00000
     21       4.7744      2.00000
     22       4.7746      2.00000
     23       4.9970      2.00000
     24       5.1313      2.00000
     25       5.1344      2.00000
     26       6.0822      2.00000
     27       7.1664      2.00000
     28       7.1802      2.00000
     29       7.3422      2.00000
     30       7.3470      2.00000
     31       7.8836      2.00000
     32       8.3578      2.00000
     33       8.3579      2.00000
     34       8.5562      2.00000
     35       9.6314      2.00000
     36       9.6318      2.00000
     37      10.6835      2.00000
     38      12.5042      2.00000
     39      12.7545      2.00000
     40      12.7659      2.00000
     41      13.4183      0.00012
     42      13.4186      0.00011
     43      13.7395      0.00000
     44      13.8737      0.00000
     45      13.8738      0.00000
     46      14.1155      0.00000
     47      14.1160      0.00000
     48      14.6228      0.00000
     49      14.6229      0.00000
     50      15.4523      0.00000
     51      15.4527      0.00000
     52      17.2438      0.00000
     53      17.5273      0.00000
     54      17.5381      0.00000

[...]

 k-point   165 :      -0.1250   -0.1250    0.4444
  band No.  band energies     occupation
      1     -49.7839      2.00000
      2     -49.7268      2.00000
      3     -49.7240      2.00000
      4     -49.6672      2.00000
      5     -23.8839      2.00000
      6     -23.8837      2.00000
      7     -23.8116      2.00000
      8     -23.8081      2.00000
      9     -23.3502      2.00000
     10     -23.3456      2.00000
     11     -23.2667      2.00000
     12     -23.2665      2.00000
     13     -23.1046      2.00000
     14     -23.0597      2.00000
     15     -23.0583      2.00000
     16     -22.9774      2.00000
     17      -0.5925      2.00000
     18       1.3165      2.00000
     19       1.4957      2.00000
     20       1.4969      2.00000
     21       3.3368      2.00000
     22       3.3372      2.00000
     23       4.6091      2.00000
     24       5.1601      2.00000
     25       6.5579      2.00000
     26       6.5639      2.00000
     27       6.8900      2.00000
     28       7.1253      2.00000
     29       8.1027      2.00000
     30       8.1050      2.00000
     31       8.1181      2.00000
     32       8.2843      2.00000
     33       8.6197      2.00000
     34       8.7780      2.00000
     35       8.7799      2.00000
     36       9.7600      2.00000
     37      10.2710      2.00000
     38      11.4744      2.00000
     39      11.4856      2.00000
     40      11.8720      2.00000
     41      13.0130      2.00000
     42      13.6506      0.00000
     43      13.6584      0.00000
     44      14.1821      0.00000
     45      14.3371      0.00000
     46      14.8054      0.00000
     47      14.9122      0.00000
     48      14.9616      0.00000
     49      14.9773      0.00000
     50      15.7246      0.00000
     51      15.8142      0.00000
     52      15.8413      0.00000
     53      16.8638      0.00000
     54      16.8696      0.00000

 soft charge-density along one line, spin component           1
         0         1         2         3         4         5         6         7         8         9
 total charge-density along one line

------------------------ aborting loop because EDIFF is reached ----------------------------------------

  FREE ENERGIE OF THE ION-ELECTRON SYSTEM (eV)
  free  energy   TOTEN  =      -157.11986603 eV

  energy  without entropy=     -157.11845510  energy(sigma->0) =     -157.11916057

 writing wavefunctions