 vasp.6.2.0 18Jan21 (build Jan 05 2022 15:41:44) complex

 executed on             LinuxIFC date 2025.05.07  14:21:05

 INCAR:
   SYSTEM = routine with relax: pwdword
   ICHARG = 2
   NPAR = 6
   KPAR = 2
   NCORE = 2
   ADDGRID = T
   PREC = Acc
   ENCUT = 600
   METAGGA = R2SCAN
   LASPH = .TRUE.
   LMIXTAU = .FALSE.
   ALGO = A
   EDIFF = 1E-9
   NELM = 100
   NELMIN = 6
   IALGO = 38
   LREAL = F
   NSW = 0
   ISIF = -1
   ISMEAR = 0
   SIGMA = 0.02
   SYMPREC = 1E-4

 POTCAR:    PAW_PBE B 06Sep2000
 POTCAR:    PAW_PBE Mo_sv 02Feb2006
 POTCAR:    PAW_PBE Si 05Jan2001
|           W    W    AA    RRRRR   N    N  II  N    N   GGGG   !!!           |
|           W    W   A  A   R    R  NN   N  II  NN   N  G    G  !!!           |
|           W    W  A    A  R    R  N N  N  II  N N  N  G       !!!           |
|           W WW W  AAAAAA  RRRRR   N  N N  II  N  N N  G  GGG   !            |
|           WW  WW  A    A  R   R   N   NN  II  N   NN  G    G                |
|           W    W  A    A  R    R  N    N  II  N    N   GGGG   !!!           |
|     For optimal performance we recommend to set                             |
|       NCORE = 2 up to number-of-cores-per-socket                            |
|     This setting can greatly improve the performance of VASP for DFT.       |
|     The default, NCORE=1 might be grossly inefficient on modern             |
|     multi-core architectures or massively parallel machines. Do your        |
|     Unfortunately you need to use the default for GW and RPA                |
|     calculations (for HF NCORE is supported but not extensively tested      |
|     yet).                                                                   |

 POTCAR:    PAW_PBE B 06Sep2000
   VRHFIN =B: s2p1

   TITEL  = PAW_PBE B 06Sep2000
   POMASS =   10.811; ZVAL   =    3.000    mass and valenz
   ENMAX  =  318.614; ENMIN  =  238.960 eV

 POTCAR:    PAW_PBE Mo_sv 02Feb2006
   VRHFIN =Mo: 4p5s4d

   TITEL  = PAW_PBE Mo_sv 02Feb2006
   POMASS =   95.940; ZVAL   =   14.000    mass and valenz
   ENMAX  =  242.676; ENMIN  =  182.007 eV

 POTCAR:    PAW_PBE Si 05Jan2001
   VRHFIN =Si: s2p2

   TITEL  = PAW_PBE Si 05Jan2001
   POMASS =   28.085; ZVAL   =    4.000    mass and valenz
   ENMAX  =  245.345; ENMIN  =  184.009 eV

  PAW_PBE B 06Sep2000                   :
  PAW_PBE Mo_sv 02Feb2006               :
  PAW_PBE Si 05Jan2001                  :

 POSCAR: EA2
  positions in direct lattice

 METAGGA = R2SCA    LMAXTAU =  6    LMIXTAU =  F

 ion  position               nearest neighbor table
   1  0.211  0.711  0.923-   8 0.54   5 2.34  13 2.34
   2  0.289  0.211  0.500-  15 0.54  14 2.34  16 2.34
   3  0.789  0.289  0.077-  10 0.54  12 2.34   7 2.34
   4  0.711  0.789  0.500-   6 0.54  11 2.34   9 2.34
   5  0.519  0.019  0.252-   1 2.34  13 2.37   9 2.78  14 2.78   6 2.82  15 2.82   8 2.82  10 3.00
                             7 3.04
   6  0.668  0.832  0.500-   4 0.54   7 2.82  13 2.82  12 2.82   5 2.82   9 2.82  11 2.82  16 3.00
                            14 3.00  17 3.23  18 3.23
   7  0.767  0.267  0.748-   3 2.34  12 2.37   9 2.78  14 2.78   6 2.82  15 2.82  10 2.82   8 3.00
                             5 3.04
   8  0.168  0.668  0.835-   1 0.54   9 2.82  14 2.82  11 2.82  16 2.82  13 2.82   5 2.82   7 3.00
                            12 3.00  18 3.23  17 3.23
   9  0.733  0.481  0.500-   4 2.34  11 2.37   5 2.78   7 2.78   8 2.82  10 2.82   6 2.82  15 3.00
                            14 3.04
  10  0.832  0.332  0.165-   3 0.54  16 2.82  11 2.82  14 2.82   9 2.82   7 2.82  12 2.82  13 3.00
                             5 3.00  18 3.23  17 3.23
  11  0.019  0.767  0.500-   4 2.34   9 2.37  12 2.78  13 2.78  10 2.82   8 2.82   6 2.82  15 3.00
                            16 3.04
  12  0.481  0.981  0.748-   3 2.34   7 2.37  11 2.78  16 2.78  15 2.82   6 2.82  10 2.82   8 3.00
                            13 3.04
  13  0.233  0.733  0.252-   1 2.34   5 2.37  11 2.78  16 2.78  15 2.82   6 2.82   8 2.82  10 3.00
                            12 3.04
  14  0.981  0.233  0.500-   2 2.34  16 2.37   5 2.78   7 2.78   8 2.82  10 2.82  15 2.82   6 3.00
                             9 3.04
  15  0.332  0.168  0.500-   2 0.54   7 2.82  13 2.82  12 2.82   5 2.82  14 2.82  16 2.82   9 3.00
                            11 3.00  18 3.23  17 3.23
  16  0.267  0.519  0.500-   2 2.34  14 2.37  12 2.78  13 2.78  10 2.82   8 2.82  15 2.82   6 3.00
                            11 3.04
  17  0.000  0.000  0.000-   8 3.23  10 3.23  15 3.23   6 3.23
  18  0.500  0.500  0.000-   8 3.23  10 3.23   6 3.23  15 3.23

  LATTYP: Found a body centered tetragonal cell.
 ALAT       =     8.6715888430
 C/A-ratio  =     0.9548545690

  Lattice vectors:

 A1 = (   7.0264773430,   0.0000000000,  -2.3167128115)
 A2 = (  -3.6754720076,   5.9885131187,  -2.3167128115)
 A3 = (   0.0000000000,   0.0000000000,   7.3985500000)

Analysis of symmetry for initial positions (statically):
 Subroutine PRICEL returns:
 Original cell was already a primitive cell.

 Routine SETGRP: Setting up the symmetry group for a
 body centered tetragonal supercell.

 Subroutine GETGRP returns: Found 16 space group operations
 (whereof  8 operations were pure point group operations)
 out of a pool of 16 trial point group operations.

The static configuration has the point symmetry C_4h.
 The point group associated with its full space group is D_4h.

Analysis of symmetry for dynamics (positions and initial velocities):
 Subroutine PRICEL returns:
 Original cell was already a primitive cell.

 Routine SETGRP: Setting up the symmetry group for a
 body centered tetragonal supercell.

 Subroutine GETGRP returns: Found 16 space group operations
 (whereof  8 operations were pure point group operations)
 out of a pool of 16 trial point group operations.

The dynamic configuration has the point symmetry C_4h.
 The point group associated with its full space group is D_4h.

 Subroutine INISYM returns: Found 16 space group operations
 (whereof  8 operations are pure point group operations),
 and found     1 'primitive' translations

                                     Primitive cell

  volume of cell :     311.3173

  direct lattice vectors                    reciprocal lattice vectors
     7.026477343  0.000000000 -2.316712812     0.142318825  0.087348704  0.000000000
    -3.675472008  5.988513119 -2.316712812     0.000000000  0.166986359  0.000000000
     0.000000000  0.000000000  7.398550000     0.044564387  0.079640105  0.135161620

  length of vectors
     7.398550000  7.398550000  7.398550000     0.166986359  0.166986359  0.163086463

  position of ions in fractional coordinates (direct lattice)
     0.211430000  0.711430000  0.922850000
     0.288570000  0.211430000  0.500000000
     0.788570000  0.288570000  0.077150000
     0.711430000  0.788570000  0.500000000
     0.519440000  0.019440000  0.252300000
     0.667600000  0.832400000  0.500000000
     0.767140000  0.267140000  0.747700000
     0.167600000  0.667600000  0.835210000
     0.732860000  0.480560000  0.500000000
     0.832400000  0.332400000  0.164790000
     0.019440000  0.767140000  0.500000000
     0.480560000  0.980560000  0.747700000
     0.232860000  0.732860000  0.252300000
     0.980560000  0.232860000  0.500000000
     0.332400000  0.167600000  0.500000000
     0.267140000  0.519440000  0.500000000
     0.000000000  0.000000000  0.000000000
     0.500000000  0.500000000  1.000000000

  ion indices of the primitive-cell ions
   primitive index   ion index
                 1           1
                 2           2
                 3           3
                 4           4
                 5           5
                 6           6
                 7           7
                 8           8
                 9           9
                10          10
                11          11
                12          12
                13          13
                14          14
                15          15
                16          16
                17          17
                18          18

 KPOINTS: EA

Automatic generation of k-mesh.
 Grid dimensions read from file:
 generate k-points for:    6    6    6

 Generating k-lattice:

  Cartesian coordinates                     Fractional coordinates (reciprocal lattice)
     0.023719804  0.014558117  0.000000000     0.166666667 -0.000000000  0.000000000
     0.000000000  0.027831060  0.000000000     0.000000000  0.166666667  0.000000000
     0.007427398  0.013273351  0.022526937     0.000000000  0.000000000  0.166666667

  Length of vectors
     0.027831060  0.027831060  0.027181077

  Shift w.r.t. Gamma in fractional coordinates (k-lattice)
     0.000000000  0.000000000  0.000000000

 Subroutine IBZKPT returns following result:

 Found     30 irreducible k-points:

 Following reciprocal coordinates:
            Coordinates               Weight
  0.000000  0.000000  0.000000      1.000000
  0.166667 -0.000000  0.000000      8.000000
  0.333333 -0.000000  0.000000      8.000000
  0.500000 -0.000000  0.000000      4.000000
  0.166667  0.166667  0.000000      8.000000
  0.333333  0.166667  0.000000     16.000000
  0.500000  0.166667  0.000000     16.000000
 -0.333333  0.166667  0.000000     16.000000
 -0.166667  0.166667  0.000000      4.000000
  0.333333  0.333333  0.000000      8.000000
  0.500000  0.333333  0.000000     16.000000
 -0.333333  0.333333  0.000000      4.000000
  0.500000  0.500000  0.000000      2.000000
  0.166667  0.166667  0.166667      8.000000
  0.333333  0.166667  0.166667      8.000000
 -0.166667  0.166667  0.166667      4.000000
  0.333333  0.333333  0.166667      4.000000
 -0.333333  0.333333  0.166667      8.000000
 -0.166667  0.333333  0.166667      8.000000
  0.500000  0.500000  0.166667      4.000000
 -0.333333  0.500000  0.166667     16.000000
 -0.166667  0.500000  0.166667      8.000000
 -0.333333 -0.333333  0.166667      8.000000
 -0.166667 -0.333333  0.166667      8.000000
 -0.166667 -0.166667  0.166667      2.000000
 -0.333333  0.333333  0.333333      4.000000
  0.500000  0.500000  0.333333      4.000000
 -0.333333  0.500000  0.333333      8.000000
 -0.333333 -0.333333  0.333333      2.000000
  0.500000  0.500000  0.500000      1.000000

 Following cartesian coordinates:
            Coordinates               Weight
  0.000000  0.000000  0.000000      1.000000
  0.023720  0.014558  0.000000      8.000000
  0.047440  0.029116  0.000000      8.000000
  0.071159  0.043674  0.000000      4.000000
  0.023720  0.042389  0.000000      8.000000
  0.047440  0.056947  0.000000     16.000000
  0.071159  0.071505  0.000000     16.000000
 -0.047440 -0.001285  0.000000     16.000000
 -0.023720  0.013273  0.000000      4.000000
  0.047440  0.084778  0.000000      8.000000
  0.071159  0.099336  0.000000     16.000000
 -0.047440  0.026546  0.000000      4.000000
  0.071159  0.127168  0.000000      2.000000
  0.031147  0.055663  0.022527      8.000000
  0.054867  0.070221  0.022527      8.000000
 -0.016292  0.026546  0.022527      4.000000
  0.054867  0.098052  0.022527      4.000000
 -0.040012  0.039819  0.022527      8.000000
 -0.016292  0.054377  0.022527      8.000000
[...]
 Hartree-type preconditioning will be used
 using additional bands           20
 reciprocal scheme for non local part
 use partial core corrections
 no Harris-corrections to forces
 use gradient corrections
 use of overlap-Matrix (Vanderbilt PP)
 Gauss-broadening in eV      SIGMA  =   0.02

  energy-cutoff  :      600.00
  volume of cell :      311.32
      direct lattice vectors                 reciprocal lattice vectors
     7.026477343  0.000000000 -2.316712812     0.142318825  0.087348704  0.000000000
    -3.675472008  5.988513119 -2.316712812     0.000000000  0.166986359  0.000000000
     0.000000000  0.000000000  7.398550000     0.044564387  0.079640105  0.135161620

  length of vectors
     7.398550000  7.398550000  7.398550000     0.166986359  0.166986359  0.163086463

 k-points in units of 2pi/SCALE and weight: EA
   0.00000000  0.00000000  0.00000000       0.005
   0.02371980  0.01455812  0.00000000       0.037
   0.04743961  0.02911623  0.00000000       0.037
   0.07115941  0.04367435  0.00000000       0.019
   0.02371980  0.04238918  0.00000000       0.037
   0.04743961  0.05694729  0.00000000       0.074
   0.07115941  0.07150541  0.00000000       0.074
  -0.04743961 -0.00128517  0.00000000       0.074
  -0.02371980  0.01327294  0.00000000       0.019
   0.04743961  0.08477835  0.00000000       0.037
   0.07115941  0.09933647  0.00000000       0.074
  -0.04743961  0.02654589  0.00000000       0.019
   0.07115941  0.12716753  0.00000000       0.009
   0.03114720  0.05566253  0.02252694       0.037
   0.05486701  0.07022065  0.02252694       0.037
  -0.01629241  0.02654629  0.02252694       0.019
   0.05486701  0.09805170  0.02252694       0.019
  -0.04001221  0.03981924  0.02252694       0.037
  -0.01629241  0.05437735  0.02252694       0.037
   0.07858681  0.14044088  0.02252694       0.019
  -0.04001221  0.06765030  0.02252694       0.074
  -0.01629241  0.08220841  0.02252694       0.037
  -0.04001221 -0.07150500  0.02252694       0.037
  -0.01629241 -0.05694689  0.02252694       0.037
  -0.01629241 -0.02911583  0.02252694       0.009
  -0.03258481  0.05309259  0.04505387       0.019
   0.08601421  0.15371423  0.04505387       0.019
  -0.03258481  0.08092365  0.04505387       0.037
  -0.03258481 -0.05823165  0.04505387       0.009
   0.09344161  0.16698758  0.06758081       0.005

 k-points in reciprocal lattice and weights: EA
   0.00000000  0.00000000  0.00000000       0.005
   0.16666667 -0.00000000  0.00000000       0.037
   0.33333333 -0.00000000  0.00000000       0.037
   0.50000000 -0.00000000  0.00000000       0.019
   0.16666667  0.16666667  0.00000000       0.037
   0.33333333  0.16666667  0.00000000       0.074
   0.50000000  0.16666667  0.00000000       0.074
  -0.33333333  0.16666667  0.00000000       0.074
  -0.16666667  0.16666667  0.00000000       0.019
   0.33333333  0.33333333  0.00000000       0.037
   0.50000000  0.33333333  0.00000000       0.074
  -0.33333333  0.33333333  0.00000000       0.019
   0.50000000  0.50000000  0.00000000       0.009
   0.16666667  0.16666667  0.16666667       0.037
   0.33333333  0.16666667  0.16666667       0.037
  -0.16666667  0.16666667  0.16666667       0.019
   0.33333333  0.33333333  0.16666667       0.019
  -0.33333333  0.33333333  0.16666667       0.037
  -0.16666667  0.33333333  0.16666667       0.037
   0.50000000  0.50000000  0.16666667       0.019
  -0.33333333  0.50000000  0.16666667       0.074
  -0.16666667  0.50000000  0.16666667       0.037
  -0.33333333 -0.33333333  0.16666667       0.037
  -0.16666667 -0.33333333  0.16666667       0.037
  -0.16666667 -0.16666667  0.16666667       0.009
  -0.33333333  0.33333333  0.33333333       0.019
   0.50000000  0.50000000  0.33333333       0.019
  -0.33333333  0.50000000  0.33333333       0.037
  -0.33333333 -0.33333333  0.33333333       0.009
   0.50000000  0.50000000  0.50000000       0.005

 position of ions in fractional coordinates (direct lattice)
   0.21143000  0.71143000  0.92285000
   0.28857000  0.21143000  0.50000000
   0.78857000  0.28857000  0.07715000
   0.71143000  0.78857000  0.50000000
   0.51944000  0.01944000  0.25230000
   0.66760000  0.83240000  0.50000000
   0.76714000  0.26714000  0.74770000
   0.16760000  0.66760000  0.83521000
   0.73286000  0.48056000  0.50000000
   0.83240000  0.33240000  0.16479000
   0.01944000  0.76714000  0.50000000
   0.48056000  0.98056000  0.74770000
   0.23286000  0.73286000  0.25230000
   0.98056000  0.23286000  0.50000000
   0.33240000  0.16760000  0.50000000
   0.26714000  0.51944000  0.50000000
   0.00000000  0.00000000  0.00000000
   0.50000000  0.50000000  0.00000000

 position of ions in cartesian coordinates  (Angst):
  -1.12923295  4.26040789  4.68975028
   1.25052552  1.26615133  2.54091859
   4.48023828  1.72810523 -1.92462591
   2.10047982  4.72236179  0.22420578
   3.57838222  0.11641670  0.61822397
   1.63141338  4.98483832  0.22420578
   4.40842624  1.59977139  3.13576611
  -1.27610751  3.99793136  4.24442441
   3.38313936  2.87783986  0.88812934
   4.62711284  1.99058176 -1.47930003
  -2.68300688  4.59402795  1.87699504
  -0.22737688  5.87209642  2.14690041
  -1.05742090  4.38874172 -0.37064173
   6.03401221  1.39448516  0.88812934
   1.71959196  1.00367480  2.54091859
  -0.03213402  3.11067325  1.87699504
   0.00000000  0.00000000  0.00000000
   1.67550267  2.99425656 -2.31671281

 k-point   1 :   0.0000 0.0000 0.0000  plane waves:   10417
 k-point   2 :   0.1667-0.0000 0.0000  plane waves:   10385
 k-point   3 :   0.3333-0.0000 0.0000  plane waves:   10375
 k-point   4 :   0.5000-0.0000 0.0000  plane waves:   10396
 k-point   5 :   0.1667 0.1667 0.0000  plane waves:   10390
 k-point   6 :   0.3333 0.1667 0.0000  plane waves:   10379
 k-point   7 :   0.5000 0.1667 0.0000  plane waves:   10390
 k-point   8 :  -0.3333 0.1667 0.0000  plane waves:   10380
 k-point   9 :  -0.1667 0.1667 0.0000  plane waves:   10399
 k-point  10 :   0.3333 0.3333 0.0000  plane waves:   10383
 k-point  11 :   0.5000 0.3333 0.0000  plane waves:   10401
 k-point  12 :  -0.3333 0.3333 0.0000  plane waves:   10400
 k-point  13 :   0.5000 0.5000 0.0000  plane waves:   10400
 k-point  14 :   0.1667 0.1667 0.1667  plane waves:   10371
 k-point  15 :   0.3333 0.1667 0.1667  plane waves:   10366
 k-point  16 :  -0.1667 0.1667 0.1667  plane waves:   10371
 k-point  17 :   0.3333 0.3333 0.1667  plane waves:   10390
 k-point  18 :  -0.3333 0.3333 0.1667  plane waves:   10388
 k-point  19 :  -0.1667 0.3333 0.1667  plane waves:   10383
 k-point  20 :   0.5000 0.5000 0.1667  plane waves:   10388
 k-point  21 :  -0.3333 0.5000 0.1667  plane waves:   10396
 k-point  22 :  -0.1667 0.5000 0.1667  plane waves:   10399
 k-point  23 :  -0.3333-0.3333 0.1667  plane waves:   10400
 k-point  24 :  -0.1667-0.3333 0.1667  plane waves:   10400
 k-point  25 :  -0.1667-0.1667 0.1667  plane waves:   10377
 k-point  26 :  -0.3333 0.3333 0.3333  plane waves:   10399
 k-point  27 :   0.5000 0.5000 0.3333  plane waves:   10404
 k-point  28 :  -0.3333 0.5000 0.3333  plane waves:   10388
 k-point  29 :  -0.3333-0.3333 0.3333  plane waves:   10408
 k-point  30 :   0.5000 0.5000 0.5000  plane waves:   10404

 maximum and minimum number of plane-waves per node :      5236     5164

 maximum number of plane-waves:     10417
 maximum index in each direction:
   IXMAX=   15   IYMAX=   15   IZMAX=   14
   IXMIN=  -15   IYMIN=  -15   IZMIN=  -15

 parallel 3D FFT for wavefunctions:
    minimum data exchange during FFTs selected (reduces bandwidth)
 parallel 3D FFT for charge:
    minimum data exchange during FFTs selected (reduces bandwidth)

 Broyden mixing: mesh for mixing (old mesh)
   NGX = 29   NGY = 29   NGZ = 29
  (NGX  =120   NGY  =120   NGZ  =120)
  gives a total of  24389 points

 initial charge density was supplied:
 charge density of overlapping atoms calculated
 number of electron     188.0000000 magnetization
 keeping initial charge density in first step

 Maximum index for augmentation-charges        19531 (set IRDMAX)

 First call to EWALD:  gamma=   0.262
 Maximum number of real-space cells 3x 3x 3
 Maximum number of reciprocal cells 3x 3x 3

--------------------------------------- Iteration      1(   1)  ---------------------------------------

 eigenvalue-minimisations  :  7284
 total energy-change (2. order) : 0.3795259E+04  (-0.1353178E+05)
 number of electron     188.0000000 magnetization
 augmentation part      188.0000000 magnetization

 Free energy of the ion-electron system (eV)
  alpha Z        PSCENC =      1019.45355762
  Ewald energy   TEWEN  =    -12380.30734980
  -Hartree energ DENC   =     -7810.65846516
  -exchange      EXHF   =         0.00000000
  -V(xc)+E(xc)   XCENC  =       952.31283757
  PAW double counting   =     18167.42904368   -18107.57746203
  entropy T*S    EENTRO =        -0.00152172
  eigenvalues    EBANDS =      -883.59374277
  atomic energy  EATOM  =     22838.20177132
  free energy    TOTEN  =      3795.25866871 eV

  energy without entropy =     3795.26019044  energy(sigma->0) =     3795.25942957

[...]

 eigenvalue-minimisations  :  7476
 total energy-change (2. order) :-0.2692941E+04  (-0.2626438E+04)
 number of electron     188.0000000 magnetization
 augmentation part      188.0000000 magnetization

[...]

 eigenvalue-minimisations  :     0
 total energy-change (2. order) :-0.1527951E-07  (-0.1672586E-08)
 number of electron     188.0000007 magnetization
 augmentation part       34.1384402 magnetization

[...]

--------------------------------------- Iteration      1(  53)  ---------------------------------------

 eigenvalue-minimisations  :     0
 total energy-change (2. order) : 0.9313226E-09  (-0.3322783E-09)
 number of electron     188.0000007 magnetization
 augmentation part       34.1384405 magnetization

 Free energy of the ion-electron system (eV)
  alpha Z        PSCENC =      1019.45355762
  Ewald energy   TEWEN  =    -12380.30734980
  -Hartree energ DENC   =     -8304.91195025
  -exchange      EXHF   =         0.00000000
  -V(xc)+E(xc)   XCENC  =       999.92932827
  PAW double counting   =    127872.69141566  -127774.21565603
  entropy T*S    EENTRO =        -0.00311664
  eigenvalues    EBANDS =     -3082.98596675
  atomic energy  EATOM  =     22838.20177132
  free energy    TOTEN  =      1187.85203340 eV

  energy without entropy =     1187.85515004  energy(sigma->0) =     1187.85359172

  average scaling for gradient   0.7461

 average (electrostatic) potential at core
  the test charge radii are     0.7672  1.0818  0.9892
  (the norm of the test charge is              1.0000)
       1 -69.1382       2 -69.1254       3 -69.1382       4 -69.1254       5 -79.4134
       6 -81.5485       7 -79.4142       8 -81.5522       9 -79.4125      10 -81.5522
      11 -79.4125      12 -79.4134      13 -79.4142      14 -79.4125      15 -81.5485
      16 -79.4125      17 -86.0207      18 -86.0207

 E-fermi :   7.2948     XC(G=0): -11.7866     alpha+bet :-15.0103

 Fermi energy:         7.2948488741

 k-point     1 :       0.0000    0.0000    0.0000
  band No.  band energies     occupation
      1     -55.6451      2.00000
      2     -55.5739      2.00000
      3     -55.5725      2.00000
      4     -55.5465      2.00000
      5     -55.3668      2.00000
      6     -55.3022      2.00000
      7     -55.3009      2.00000
      8     -55.2666      2.00000
      9     -54.3693      2.00000
     10     -54.3686      2.00000
     11     -54.3683      2.00000
     12     -54.3644      2.00000
     13     -34.5690      2.00000
     14     -34.5670      2.00000
     15     -34.5621      2.00000
     16     -34.5616      2.00000
     17     -34.5514      2.00000
     18     -34.5514      2.00000
     19     -34.5458      2.00000
     20     -34.5439      2.00000
     21     -29.7796      2.00000
     22     -29.6205      2.00000
     23     -29.6194      2.00000
     24     -29.5404      2.00000
     25     -29.1994      2.00000
     26     -29.1111      2.00000
     27     -29.0089      2.00000
     28     -29.0083      2.00000
     29     -28.9698      2.00000
     30     -28.9116      2.00000
     31     -28.8718      2.00000
     32     -28.8597      2.00000
     33     -28.8590      2.00000
     34     -28.8346      2.00000
     35     -28.8050      2.00000
     36     -28.8040      2.00000
     37     -28.7068      2.00000
     38     -28.6306      2.00000
     39     -28.6085      2.00000
     40     -28.6074      2.00000
     41     -28.1474      2.00000
     42     -27.9867      2.00000
     43     -27.9856      2.00000
     44     -27.8392      2.00000
     45     -23.6775      2.00000
     46     -23.6640      2.00000
     47     -23.6636      2.00000
     48     -23.6517      2.00000
     49      -0.6971      2.00000
     50      -0.0292      2.00000
     51       0.0608      2.00000
     52       0.1641      2.00000
     53       0.1941      2.00000
     54       0.1947      2.00000
     55       0.2381      2.00000
     56       0.2389      2.00000
     57       0.4105      2.00000
     58       0.6784      2.00000
     59       1.6574      2.00000
     60       2.5295      2.00000
[...]
    100       7.9751      0.00000
    101       8.0154      0.00000
    102       8.0164      0.00000
    103       8.5918      0.00000
    104       8.6835      0.00000
    105       8.6846      0.00000
    106       8.9146      0.00000
    107       9.0585      0.00000
    108       9.2038      0.00000
    109       9.4464      0.00000
    110       9.5146      0.00000
    111       9.5364      0.00000
    112       9.6013      0.00000
    113       9.8452      0.00000
    114      11.0421      0.00000

[...]

 k-point    30 :       0.5000    0.5000    0.5000
  band No.  band energies     occupation
      1     -55.6418      2.00000
      2     -55.5762      2.00000
      3     -55.5748      2.00000
      4     -55.5454      2.00000
      5     -55.3691      2.00000
      6     -55.3001      2.00000
      7     -55.2987      2.00000
      8     -55.2686      2.00000
      9     -54.3690      2.00000
     10     -54.3679      2.00000
     11     -54.3673      2.00000
     12     -54.3661      2.00000
     13     -34.5701      2.00000
     14     -34.5668      2.00000
     15     -34.5618      2.00000
     16     -34.5614      2.00000
     17     -34.5535      2.00000
     18     -34.5512      2.00000
     19     -34.5456      2.00000
     20     -34.5423      2.00000
     21     -29.7847      2.00000
     22     -29.6301      2.00000
     23     -29.6290      2.00000
     24     -29.5191      2.00000
     25     -29.1408      2.00000
     26     -29.1072      2.00000
     27     -29.0289      2.00000
     28     -29.0286      2.00000
     29     -29.0028      2.00000
     30     -28.9078      2.00000
     31     -28.8782      2.00000
     32     -28.8525      2.00000
     33     -28.8517      2.00000
     34     -28.8433      2.00000
     35     -28.8070      2.00000
     36     -28.8062      2.00000
     37     -28.7188      2.00000
     38     -28.6285      2.00000
     39     -28.5920      2.00000
     40     -28.5908      2.00000
     41     -28.1623      2.00000
     42     -27.9785      2.00000
     43     -27.9773      2.00000
     44     -27.8479      2.00000
     45     -23.6868      2.00000
     46     -23.6611      2.00000
     47     -23.6608      2.00000
     48     -23.6501      2.00000
     49      -0.3077      2.00000
     50      -0.0172      2.00000
     51      -0.0070      2.00000
     52       0.1243      2.00000
     53       0.2514      2.00000
     54       0.2520      2.00000
     55       0.2713      2.00000
     56       0.2720      2.00000
     57       0.3855      2.00000
     58       0.6009      2.00000
     59       1.6589      2.00000
     60       2.2633      2.00000
[...]
    100       8.0620      0.00000
    101       8.1755      0.00000
    102       8.3120      0.00000
    103       8.3132      0.00000
    104       8.3697      0.00000
    105       8.6319      0.00000
    106       8.6835      0.00000
    107       8.6841      0.00000
    108       8.7552      0.00000
    109       9.3382      0.00000
    110       9.4528      0.00000
    111       9.8483      0.00000
    112       9.8499      0.00000
    113      10.2268      0.00000
    114      10.5377      0.00000

 soft charge-density along one line, spin component           1
         0         1         2         3         4         5         6         7         8         9
 total charge-density along one line

------------------------ aborting loop because EDIFF is reached ----------------------------------------

  FREE ENERGIE OF THE ION-ELECTRON SYSTEM (eV)
  free  energy   TOTEN  =      1187.85203340 eV

  energy  without entropy=     1187.85515004  energy(sigma->0) =     1187.85359172

 writing wavefunctions