 vasp.6.2.0 18Jan21 (build Jan 05 2022 15:41:44) complex

 executed on             LinuxIFC date 2025.05.07  15:01:03

 INCAR:
   SYSTEM = routine with relax: pwdword
   ICHARG = 2
   NPAR = 6
   KPAR = 2
   NCORE = 2
   ADDGRID = T
   PREC = Acc
   ENCUT = 600
   METAGGA = R2SCAN
   LASPH = .TRUE.
   LMIXTAU = .FALSE.
   ALGO = A
   EDIFF = 1E-9
   NELM = 100
   NELMIN = 6
   IALGO = 38
   LREAL = F
   NSW = 0
   ISIF = -1
   ISMEAR = 0
   SIGMA = 0.02

 POTCAR:    PAW_PBE B 06Sep2000
 POTCAR:    PAW_PBE Mo_sv 02Feb2006
 POTCAR:    PAW_PBE Si 05Jan2001
|           W    W    AA    RRRRR   N    N  II  N    N   GGGG   !!!           |
|           W    W   A  A   R    R  NN   N  II  NN   N  G    G  !!!           |
|           W    W  A    A  R    R  N N  N  II  N N  N  G       !!!           |
|           W WW W  AAAAAA  RRRRR   N  N N  II  N  N N  G  GGG   !            |
|           WW  WW  A    A  R   R   N   NN  II  N   NN  G    G                |
|           W    W  A    A  R    R  N    N  II  N    N   GGGG   !!!           |
|     For optimal performance we recommend to set                             |
|       NCORE = 2 up to number-of-cores-per-socket                            |
|     This setting can greatly improve the performance of VASP for DFT.       |
|     The default, NCORE=1 might be grossly inefficient on modern             |
|     multi-core architectures or massively parallel machines. Do your        |
|     Unfortunately you need to use the default for GW and RPA                |
|     calculations (for HF NCORE is supported but not extensively tested      |
|     yet).                                                                   |

 POTCAR:    PAW_PBE B 06Sep2000
   VRHFIN =B: s2p1

   TITEL  = PAW_PBE B 06Sep2000
   POMASS =   10.811; ZVAL   =    3.000    mass and valenz
   ENMAX  =  318.614; ENMIN  =  238.960 eV

 POTCAR:    PAW_PBE Mo_sv 02Feb2006
   VRHFIN =Mo: 4p5s4d

   TITEL  = PAW_PBE Mo_sv 02Feb2006
   POMASS =   95.940; ZVAL   =   14.000    mass and valenz
   ENMAX  =  242.676; ENMIN  =  182.007 eV

 POTCAR:    PAW_PBE Si 05Jan2001
   VRHFIN =Si: s2p2

   TITEL  = PAW_PBE Si 05Jan2001
   POMASS =   28.085; ZVAL   =    4.000    mass and valenz
   ENMAX  =  245.345; ENMIN  =  184.009 eV

  PAW_PBE B 06Sep2000                   :
  PAW_PBE Mo_sv 02Feb2006               :
  PAW_PBE Si 05Jan2001                  :

 POSCAR: EA39
  positions in direct lattice

 METAGGA = R2SCA    LMAXTAU =  6    LMIXTAU =  F

 ion  position               nearest neighbor table
   1  0.250  0.250  0.000-   9 1.94  10 1.94   3 2.01   7 2.01   5 2.01   8 2.01
   2  0.750  0.750  0.000-   9 1.94  10 1.94   3 2.01   7 2.01   8 2.01   5 2.01
   3  0.000  0.500  0.000-   1 2.01   2 2.01   6 2.79   9 2.79  10 2.79   6 2.79   9 2.79  10 2.79
                             4 2.79   4 2.79   8 2.84   5 2.84   5 2.84   8 2.84
   4  0.500  0.000  0.500-   5 2.79   7 2.79   8 2.79   7 2.79   5 2.79   8 2.79   3 2.79   3 2.79
                            10 2.84   9 2.84   9 2.84  10 2.84
   5  0.500  0.500  0.500-   2 2.01   1 2.01   6 2.79  10 2.79   4 2.79  10 2.79   4 2.79   6 2.79
                             9 2.79   9 2.79   7 2.84   7 2.84   3 2.84   3 2.84
   6  0.000  0.500  0.500-   3 2.79   5 2.79   8 2.79   3 2.79   8 2.79   5 2.79   7 2.79   7 2.79
                             9 2.84   9 2.84  10 2.84  10 2.84
   7  0.500  0.000  0.000-   1 2.01   2 2.01   4 2.79   9 2.79  10 2.79   4 2.79  10 2.79   9 2.79
                             6 2.79   6 2.79   5 2.84   5 2.84   8 2.84   8 2.84
   8  0.000  0.000  0.500-   1 2.01   2 2.01   6 2.79   9 2.79   4 2.79   9 2.79   6 2.79   4 2.79
                            10 2.79  10 2.79   3 2.84   7 2.84   7 2.84   3 2.84
   9  0.000  0.000  0.000-   1 1.94   2 1.94   3 2.79   7 2.79   8 2.79   8 2.79   3 2.79   7 2.79
                             5 2.79   5 2.79   6 2.84   4 2.84   4 2.84   6 2.84
  10  0.500  0.500  0.000-   1 1.94   2 1.94   3 2.79   5 2.79   7 2.79   5 2.79   7 2.79   3 2.79
                             8 2.79   8 2.79   4 2.84   4 2.84   6 2.84   6 2.84

  LATTYP: Found a body centered tetragonal cell.
 ALAT       =     5.6722409053
 C/A-ratio  =     1.3661895449

  Lattice vectors:

 A1 = (   4.8839480044,   0.0000000000,  -2.6920817202)
 A2 = (  -1.7038050282,   4.5771166181,  -2.6920817202)
 A3 = (   0.0000000000,   0.0000000000,   5.5767600000)

Analysis of symmetry for initial positions (statically):
 Subroutine PRICEL returns following result:

  LATTYP: Found a simple tetragonal cell.
 ALAT       =     4.0108754204
 C/A-ratio  =     0.9660429967

[...]

   2 primitive cells build up your supercell.

 Routine SETGRP: Setting up the symmetry group for a
 body centered tetragonal supercell.

 Subroutine GETGRP returns: Found 16 space group operations
 (whereof 16 operations were pure point group operations)
 out of a pool of 16 trial point group operations.

The static configuration has the point symmetry D_4h.

Analysis of symmetry for dynamics (positions and initial velocities):
 Subroutine PRICEL returns following result:

  LATTYP: Found a simple tetragonal cell.
 ALAT       =     4.0108754204
 C/A-ratio  =     0.9660429967

  Lattice vectors:

 A1 = (  -3.2938765163,   2.2885583090,   0.0000000000)
 A2 = (   1.5900714881,   2.2885583090,   2.8846782798)
 A3 = (   1.5900714881,   2.2885583090,  -2.6920817202)

   2 primitive cells build up your supercell.

 Routine SETGRP: Setting up the symmetry group for a
 body centered tetragonal supercell.

 Subroutine GETGRP returns: Found 16 space group operations
 (whereof 16 operations were pure point group operations)
 out of a pool of 16 trial point group operations.

The dynamic configuration has the point symmetry D_4h.

 Subroutine INISYM returns: Found 16 space group operations
 (whereof 16 operations are pure point group operations),
 and found     2 'primitive' translations

                                     Primitive cell

  volume of cell :      62.3326

  direct lattice vectors                    reciprocal lattice vectors
    -3.293876516  2.288558309  0.000000000    -0.204752385  0.142260273  0.000000000
     1.590071488  2.288558309  2.884678280     0.098840573  0.142259273  0.179315588
     1.590071488  2.288558309 -2.692081720     0.105911812  0.152436767 -0.179315588

  length of vectors
     4.010875420  4.010884597  3.874678110     0.249322129  0.249321559  0.258085955

  position of ions in fractional coordinates (direct lattice)
     0.000000000  0.000000000  0.500000000
     0.500000000  1.000000000  0.500000000
     0.500000000  0.500000000  0.000000000
     0.000000000  0.500000000  0.500000000
     0.000000000  0.000000000  0.000000000

  ion indices of the primitive-cell ions
   primitive index   ion index
                 1           1
                 2           3
                 3           4
                 4           5
                 5           9

 KPOINTS: EA

Automatic generation of k-mesh.
 Grid dimensions read from file:
 generate k-points for:    8    8    9

 Generating k-lattice:

  Cartesian coordinates                     Fractional coordinates (reciprocal lattice)
     0.025594048  0.009527235  0.000000000     0.125000000  0.000000000  0.000000000
     0.000000000  0.027309770  0.000000000     0.000000000  0.125000000  0.000000000
     0.010982286  0.015806586  0.019923954     0.000000000  0.000000000  0.111111111

  Length of vectors
     0.027309770  0.027309770  0.027702395

  Shift w.r.t. Gamma in fractional coordinates (k-lattice)
     0.000000000  0.000000000  0.000000000

 WARNING: IBZKPT: internal override: KBLOWUP is changed to .FALSE.
      ... skipping the blow-up phase ...

 Subroutine IBZKPT returns following result:

 Found    165 irreducible k-points:

 Following reciprocal coordinates:
            Coordinates               Weight
  0.000000  0.000000  0.000000      1.000000
  0.125000  0.000000  0.000000      4.000000
  0.250000  0.000000  0.000000      4.000000
  0.375000  0.000000  0.000000      4.000000
  0.500000  0.000000  0.000000      2.000000
  0.125000  0.125000  0.000000      2.000000
  0.250000  0.125000  0.000000      4.000000
  0.375000  0.125000  0.000000      4.000000
  0.500000  0.125000  0.000000      4.000000
 -0.375000  0.125000  0.000000      4.000000
 -0.250000  0.125000  0.000000      4.000000
 -0.125000  0.125000  0.000000      2.000000
  0.250000  0.250000  0.000000      2.000000
  0.375000  0.250000  0.000000      4.000000
  0.500000  0.250000  0.000000      4.000000
 -0.375000  0.250000  0.000000      4.000000
 -0.250000  0.250000  0.000000      2.000000
  0.375000  0.375000  0.000000      2.000000
  0.500000  0.375000  0.000000      4.000000
 -0.375000  0.375000  0.000000      2.000000
  0.500000  0.500000  0.000000      1.000000
  0.000000 -0.000000  0.111111      2.000000
  0.125000 -0.000000  0.111111      4.000000
  0.250000  0.000000  0.111111      4.000000
  0.375000  0.000000  0.111111      4.000000
  0.500000 -0.000000  0.111111      4.000000
 -0.375000 -0.000000  0.111111      4.000000
 -0.250000  0.000000  0.111111      4.000000
 -0.125000  0.000000  0.111111      4.000000
  0.125000  0.125000  0.111111      2.000000
  0.250000  0.125000  0.111111      4.000000
  0.375000  0.125000  0.111111      4.000000
  0.500000  0.125000  0.111111      4.000000
 -0.375000  0.125000  0.111111      4.000000
 -0.250000  0.125000  0.111111      4.000000
 -0.125000  0.125000  0.111111      4.000000
  0.250000  0.250000  0.111111      2.000000
  0.375000  0.250000  0.111111      4.000000
  0.500000  0.250000  0.111111      4.000000
 -0.375000  0.250000  0.111111      4.000000
 -0.250000  0.250000  0.111111      4.000000
 -0.125000  0.250000  0.111111      4.000000
  0.375000  0.375000  0.111111      2.000000
  0.500000  0.375000  0.111111      4.000000
 -0.375000  0.375000  0.111111      4.000000
 -0.250000  0.375000  0.111111      4.000000
 -0.125000  0.375000  0.111111      4.000000
  0.500000  0.500000  0.111111      2.000000
 -0.375000  0.500000  0.111111      4.000000
 -0.250000  0.500000  0.111111      4.000000
 -0.125000  0.500000  0.111111      4.000000
 -0.375000 -0.375000  0.111111      2.000000
 -0.250000 -0.375000  0.111111      4.000000
 -0.125000 -0.375000  0.111111      4.000000
 -0.250000 -0.250000  0.111111      2.000000
 -0.125000 -0.250000  0.111111      4.000000
 -0.125000 -0.125000  0.111111      2.000000
  0.000000  0.000000  0.222222      2.000000
  0.125000  0.000000  0.222222      4.000000
  0.250000  0.000000  0.222222      4.000000
[...]
  0.375000  0.375000  0.444444      2.000000
  0.500000  0.375000  0.444444      4.000000
 -0.375000  0.375000  0.444444      4.000000
 -0.250000  0.375000  0.444444      4.000000
 -0.125000  0.375000  0.444444      4.000000
  0.500000  0.500000  0.444444      2.000000
 -0.375000  0.500000  0.444444      4.000000
 -0.250000  0.500000  0.444444      4.000000
 -0.125000  0.500000  0.444444      4.000000
 -0.375000 -0.375000  0.444444      2.000000
 -0.250000 -0.375000  0.444444      4.000000
 -0.125000 -0.375000  0.444444      4.000000
 -0.250000 -0.250000  0.444444      2.000000
 -0.125000 -0.250000  0.444444      4.000000
[...]
   0.50000000 -0.00000000  0.11111111       0.007
  -0.37500000 -0.00000000  0.11111111       0.007
  -0.25000000  0.00000000  0.11111111       0.007
  -0.12500000  0.00000000  0.11111111       0.007
   0.12500000  0.12500000  0.11111111       0.003
   0.25000000  0.12500000  0.11111111       0.007
   0.37500000  0.12500000  0.11111111       0.007
   0.50000000  0.12500000  0.11111111       0.007
  -0.37500000  0.12500000  0.11111111       0.007
  -0.25000000  0.12500000  0.11111111       0.007
  -0.12500000  0.12500000  0.11111111       0.007
   0.25000000  0.25000000  0.11111111       0.003
   0.37500000  0.25000000  0.11111111       0.007
   0.50000000  0.25000000  0.11111111       0.007
  -0.37500000  0.25000000  0.11111111       0.007
  -0.25000000  0.25000000  0.11111111       0.007
  -0.12500000  0.25000000  0.11111111       0.007
   0.37500000  0.37500000  0.11111111       0.003
   0.50000000  0.37500000  0.11111111       0.007
  -0.37500000  0.37500000  0.11111111       0.007
  -0.25000000  0.37500000  0.11111111       0.007
  -0.12500000  0.37500000  0.11111111       0.007
   0.50000000  0.50000000  0.11111111       0.003
  -0.37500000  0.50000000  0.11111111       0.007
  -0.25000000  0.50000000  0.11111111       0.007
  -0.12500000  0.50000000  0.11111111       0.007
  -0.37500000 -0.37500000  0.11111111       0.003
  -0.25000000 -0.37500000  0.11111111       0.007
  -0.12500000 -0.37500000  0.11111111       0.007
  -0.25000000 -0.25000000  0.11111111       0.003
  -0.12500000 -0.25000000  0.11111111       0.007
  -0.12500000 -0.12500000  0.11111111       0.003
   0.00000000  0.00000000  0.22222222       0.003
   0.12500000  0.00000000  0.22222222       0.007
   0.25000000  0.00000000  0.22222222       0.007
[...]
   0.37500000  0.37500000  0.44444444       0.003
   0.50000000  0.37500000  0.44444444       0.007
  -0.37500000  0.37500000  0.44444444       0.007
  -0.25000000  0.37500000  0.44444444       0.007
  -0.12500000  0.37500000  0.44444444       0.007
   0.50000000  0.50000000  0.44444444       0.003
  -0.37500000  0.50000000  0.44444444       0.007
  -0.25000000  0.50000000  0.44444444       0.007
  -0.12500000  0.50000000  0.44444444       0.007
  -0.37500000 -0.37500000  0.44444444       0.003
  -0.25000000 -0.37500000  0.44444444       0.007
  -0.12500000 -0.37500000  0.44444444       0.007
  -0.25000000 -0.25000000  0.44444444       0.003
  -0.12500000 -0.25000000  0.44444444       0.007
  -0.12500000 -0.12500000  0.44444444       0.003

 position of ions in fractional coordinates (direct lattice)
   0.25000000  0.25000000  0.00000000
   0.75000000  0.75000000  0.00000000
   0.00000000  0.50000000  0.00000000
   0.50000000  0.00000000  0.50000000
   0.50000000  0.50000000  0.50000000
   0.00000000  0.50000000  0.50000000
   0.50000000  0.00000000  0.00000000
   0.00000000  0.00000000  0.50000000
   0.00000000  0.00000000  0.00000000
   0.50000000  0.50000000  0.00000000

 position of ions in cartesian coordinates  (Angst):
   0.79503574  1.14427915 -1.34604086
   2.38510723  3.43283746 -4.03812258
  -0.85190251  2.28855831 -1.34604086
   2.44197400  0.00000000  1.44233914
   1.59007149  2.28855831  0.09629828
  -0.85190251  2.28855831  1.44233914
   2.44197400  0.00000000 -1.34604086
   0.00000000  0.00000000  2.78838000
   0.00000000  0.00000000  0.00000000
   1.59007149  2.28855831 -2.69208172

 k-point   1 :   0.0000 0.0000 0.0000  plane waves:    4147
 k-point   2 :   0.1250 0.0000 0.0000  plane waves:    4164
 k-point   3 :   0.2500 0.0000 0.0000  plane waves:    4158
 k-point   4 :   0.3750 0.0000 0.0000  plane waves:    4159
 k-point   5 :   0.5000 0.0000 0.0000  plane waves:    4158
 k-point   6 :   0.1250 0.1250 0.0000  plane waves:    4157
 k-point   7 :   0.2500 0.1250 0.0000  plane waves:    4154
 k-point   8 :   0.3750 0.1250 0.0000  plane waves:    4167
 k-point   9 :   0.5000 0.1250 0.0000  plane waves:    4158
 k-point  10 :  -0.3750 0.1250 0.0000  plane waves:    4153
 k-point  11 :  -0.2500 0.1250 0.0000  plane waves:    4149
 k-point  12 :  -0.1250 0.1250 0.0000  plane waves:    4158
 k-point  13 :   0.2500 0.2500 0.0000  plane waves:    4163
 k-point  14 :   0.3750 0.2500 0.0000  plane waves:    4159
 k-point  15 :   0.5000 0.2500 0.0000  plane waves:    4158
 k-point  16 :  -0.3750 0.2500 0.0000  plane waves:    4150
 k-point  17 :  -0.2500 0.2500 0.0000  plane waves:    4158
 k-point  18 :   0.3750 0.3750 0.0000  plane waves:    4163
 k-point  19 :   0.5000 0.3750 0.0000  plane waves:    4163
 k-point  20 :  -0.3750 0.3750 0.0000  plane waves:    4156
 k-point  21 :   0.5000 0.5000 0.0000  plane waves:    4164
 k-point  22 :   0.0000-0.0000 0.1111  plane waves:    4160
 k-point  23 :   0.1250-0.0000 0.1111  plane waves:    4150
 k-point  24 :   0.2500 0.0000 0.1111  plane waves:    4151
 k-point  25 :   0.3750 0.0000 0.1111  plane waves:    4158
 k-point  26 :   0.5000-0.0000 0.1111  plane waves:    4168
 k-point  27 :  -0.3750-0.0000 0.1111  plane waves:    4158
 k-point  28 :  -0.2500 0.0000 0.1111  plane waves:    4155
 k-point  29 :  -0.1250 0.0000 0.1111  plane waves:    4167
 k-point  30 :   0.1250 0.1250 0.1111  plane waves:    4152
 k-point  31 :   0.2500 0.1250 0.1111  plane waves:    4154
 k-point  32 :   0.3750 0.1250 0.1111  plane waves:    4157
 k-point  33 :   0.5000 0.1250 0.1111  plane waves:    4161
 k-point  34 :  -0.3750 0.1250 0.1111  plane waves:    4153
 k-point  35 :  -0.2500 0.1250 0.1111  plane waves:    4154
 k-point  36 :  -0.1250 0.1250 0.1111  plane waves:    4158
 k-point  37 :   0.2500 0.2500 0.1111  plane waves:    4144
 k-point  38 :   0.3750 0.2500 0.1111  plane waves:    4150
 k-point  39 :   0.5000 0.2500 0.1111  plane waves:    4151
 k-point  40 :  -0.3750 0.2500 0.1111  plane waves:    4152
 k-point  41 :  -0.2500 0.2500 0.1111  plane waves:    4143
 k-point  42 :  -0.1250 0.2500 0.1111  plane waves:    4146
 k-point  43 :   0.3750 0.3750 0.1111  plane waves:    4139
 k-point  44 :   0.5000 0.3750 0.1111  plane waves:    4157
 k-point  45 :  -0.3750 0.3750 0.1111  plane waves:    4160
 k-point  46 :  -0.2500 0.3750 0.1111  plane waves:    4164
 k-point  47 :  -0.1250 0.3750 0.1111  plane waves:    4163
 k-point  48 :   0.5000 0.5000 0.1111  plane waves:    4166
 k-point  49 :  -0.3750 0.5000 0.1111  plane waves:    4169
 k-point  50 :  -0.2500 0.5000 0.1111  plane waves:    4169
 k-point  51 :  -0.1250 0.5000 0.1111  plane waves:    4162
 k-point  52 :  -0.3750-0.3750 0.1111  plane waves:    4172
 k-point  53 :  -0.2500-0.3750 0.1111  plane waves:    4167
 k-point  54 :  -0.1250-0.3750 0.1111  plane waves:    4164
 k-point  55 :  -0.2500-0.2500 0.1111  plane waves:    4157
 k-point  56 :  -0.1250-0.2500 0.1111  plane waves:    4158
 k-point  57 :  -0.1250-0.1250 0.1111  plane waves:    4143
 k-point  58 :   0.0000 0.0000 0.2222  plane waves:    4148
 k-point  59 :   0.1250 0.0000 0.2222  plane waves:    4142
 k-point  60 :   0.2500 0.0000 0.2222  plane waves:    4161
[...]
 k-point 151 :   0.3750 0.3750 0.4444  plane waves:    4168
 k-point 152 :   0.5000 0.3750 0.4444  plane waves:    4166
 k-point 153 :  -0.3750 0.3750 0.4444  plane waves:    4157
 k-point 154 :  -0.2500 0.3750 0.4444  plane waves:    4171
 k-point 155 :  -0.1250 0.3750 0.4444  plane waves:    4179
 k-point 156 :   0.5000 0.5000 0.4444  plane waves:    4156
 k-point 157 :  -0.3750 0.5000 0.4444  plane waves:    4165
 k-point 158 :  -0.2500 0.5000 0.4444  plane waves:    4176
 k-point 159 :  -0.1250 0.5000 0.4444  plane waves:    4169
 k-point 160 :  -0.3750-0.3750 0.4444  plane waves:    4166
 k-point 161 :  -0.2500-0.3750 0.4444  plane waves:    4165
 k-point 162 :  -0.1250-0.3750 0.4444  plane waves:    4160
 k-point 163 :  -0.2500-0.2500 0.4444  plane waves:    4165
 k-point 164 :  -0.1250-0.2500 0.4444  plane waves:    4152
 k-point 165 :  -0.1250-0.1250 0.4444  plane waves:    4149

 maximum and minimum number of plane-waves per node :      2119     2049

 maximum number of plane-waves:      4186
 maximum index in each direction:
   IXMAX=   11   IYMAX=   11   IZMAX=   11
   IXMIN=  -11   IYMIN=  -11   IZMIN=  -11

 parallel 3D FFT for wavefunctions:
    minimum data exchange during FFTs selected (reduces bandwidth)
 parallel 3D FFT for charge:
    minimum data exchange during FFTs selected (reduces bandwidth)

 Broyden mixing: mesh for mixing (old mesh)
   NGX = 23   NGY = 23   NGZ = 23
  (NGX  = 96   NGY  = 96   NGZ  = 96)
  gives a total of  12167 points

 initial charge density was supplied:
 charge density of overlapping atoms calculated
 number of electron      98.0000000 magnetization
 keeping initial charge density in first step

 Maximum index for augmentation-charges        25119 (set IRDMAX)

 First call to EWALD:  gamma=   0.355
 Maximum number of real-space cells 3x 3x 3
 Maximum number of reciprocal cells 3x 3x 3

--------------------------------------- Iteration      1(   1)  ---------------------------------------

 eigenvalue-minimisations  : 19824
 total energy-change (2. order) : 0.1105294E+04  (-0.6784746E+04)
 number of electron      98.0000000 magnetization
 augmentation part       98.0000000 magnetization

 Free energy of the ion-electron system (eV)
  alpha Z        PSCENC =       670.15091905
  Ewald energy   TEWEN  =     -9841.31038699
  -Hartree energ DENC   =     -2149.11509438
  -exchange      EXHF   =         0.00000000
  -V(xc)+E(xc)   XCENC  =       472.19813549
  PAW double counting   =      9166.97638771    -9126.13493418
  entropy T*S    EENTRO =        -0.00072220
  eigenvalues    EBANDS =       390.36215961
  atomic energy  EATOM  =     11522.16744521
  free energy    TOTEN  =      1105.29390933 eV

  energy without entropy =     1105.29463154  energy(sigma->0) =     1105.29427043

[...]

 eigenvalue-minimisations  : 21816
 total energy-change (2. order) :-0.1282041E+04  (-0.1248545E+04)
 number of electron      98.0000000 magnetization
 augmentation part       98.0000000 magnetization

[...]

 eigenvalue-minimisations  :     0
 total energy-change (2. order) : 0.1253284E-08  ( 0.4448826E-09)
 number of electron      98.0000001 magnetization
 augmentation part       14.3746791 magnetization

[...]

 eigenvalue-minimisations  :     0
 total energy-change (2. order) : 0.3190507E-08  (-0.3855399E-08)
 number of electron      98.0000001 magnetization
 augmentation part       14.3746778 magnetization

[...]

 eigenvalue-minimisations  :     0
 total energy-change (2. order) :-0.2557499E-08  ( 0.9183224E-08)
 number of electron      98.0000001 magnetization
 augmentation part       14.3746776 magnetization

[...]

--------------------------------------- Iteration      1(  41)  ---------------------------------------

 eigenvalue-minimisations  :     0
 total energy-change (2. order) :-0.3292371E-09  (-0.1145613E-10)
 number of electron      98.0000001 magnetization
 augmentation part       14.3746777 magnetization

 Free energy of the ion-electron system (eV)
  alpha Z        PSCENC =       670.15091905
  Ewald energy   TEWEN  =     -9841.31038699
  -Hartree energ DENC   =     -2011.28149012
  -exchange      EXHF   =         0.00000000
  -V(xc)+E(xc)   XCENC  =       481.54426821
  PAW double counting   =     13485.81046906   -13466.46562969
  entropy T*S    EENTRO =        -0.00184364
  eigenvalues    EBANDS =     -1023.48569654
  atomic energy  EATOM  =     11522.16744521
  free energy    TOTEN  =      -182.87194544 eV

  energy without entropy =     -182.87010180  energy(sigma->0) =     -182.87102362

  average scaling for gradient   0.9413

 average (electrostatic) potential at core
  the test charge radii are     0.7672  1.0818  0.9892
  (the norm of the test charge is              1.0000)
       1 -20.8421       2 -20.8421       3 -73.8321       4 -73.9883       5 -73.8320
       6 -73.9883       7 -73.8321       8 -73.8320       9 -80.3200      10 -80.3200

 E-fermi :  12.9662     XC(G=0): -14.3560     alpha+bet :-20.6660

 Fermi energy:        12.9661504115

 k-point     1 :       0.0000    0.0000    0.0000
  band No.  band energies     occupation
      1     -50.1849      2.00000
      2     -50.0290      2.00000
      3     -49.9684      2.00000
      4     -49.9684      2.00000
      5     -49.9037      2.00000
      6     -49.8812      2.00000
      7     -24.2393      2.00000
      8     -24.2377      2.00000
      9     -24.0571      2.00000
     10     -24.0570      2.00000
     11     -24.0171      2.00000
     12     -23.9421      2.00000
     13     -23.9421      2.00000
     14     -23.4760      2.00000
     15     -23.4760      2.00000
     16     -23.3749      2.00000
     17     -23.2228      2.00000
     18     -22.9974      2.00000
     19     -22.9863      2.00000
     20     -22.9863      2.00000
     21     -22.9005      2.00000
     22     -22.8611      2.00000
     23     -22.8611      2.00000
     24     -22.8317      2.00000
     25      -0.8131      2.00000
     26       1.2351      2.00000
     27       4.6277      2.00000
     28       5.4904      2.00000
     29       5.9362      2.00000
     30       5.9362      2.00000
     31       6.7180      2.00000
     32       7.1217      2.00000
     33       8.0838      2.00000
     34       8.2414      2.00000
     35       8.2443      2.00000
     36       8.3721      2.00000
     37       8.3722      2.00000
     38       9.3148      2.00000
     39       9.3148      2.00000
     40       9.4919      2.00000
     41       9.4919      2.00000
     42      10.0099      2.00000
     43      10.0099      2.00000
     44      11.1490      2.00000
     45      12.5224      2.00000
     46      12.5224      2.00000
     47      12.5527      2.00000
     48      12.5527      2.00000
     49      12.6838      2.00000
     50      13.0017      0.01193
     51      13.1295      0.00000
     52      13.4865      0.00000
     53      14.0153      0.00000
     54      14.4006      0.00000
     55      15.3800      0.00000
     56      15.4747      0.00000
     57      16.1441      0.00000
     58      16.6162      0.00000
     59      17.1488      0.00000
     60      17.1540      0.00000

[...]

 k-point   165 :      -0.1250   -0.1250    0.4444
  band No.  band energies     occupation
      1     -50.1265      2.00000
      2     -50.0439      2.00000
      3     -49.9685      2.00000
      4     -49.9557      2.00000
      5     -49.9425      2.00000
      6     -49.9017      2.00000
      7     -24.0176      2.00000
      8     -23.9964      2.00000
      9     -23.9450      2.00000
     10     -23.9083      2.00000
     11     -23.8929      2.00000
     12     -23.8242      2.00000
     13     -23.6795      2.00000
     14     -23.5782      2.00000
     15     -23.5524      2.00000
     16     -23.4681      2.00000
     17     -23.3442      2.00000
     18     -23.3018      2.00000
     19     -23.2128      2.00000
     20     -23.0333      2.00000
     21     -23.0225      2.00000
     22     -22.9838      2.00000
     23     -22.9361      2.00000
     24     -22.9034      2.00000
     25       0.2486      2.00000
     26       1.5510      2.00000
     27       3.3010      2.00000
     28       5.1302      2.00000
     29       6.2167      2.00000
     30       6.4303      2.00000
     31       7.5317      2.00000
     32       7.6529      2.00000
     33       7.6691      2.00000
     34       7.7877      2.00000
     35       7.9593      2.00000
     36       8.8942      2.00000
     37       9.0327      2.00000
     38       9.0333      2.00000
     39       9.4223      2.00000
     40       9.5226      2.00000
     41       9.9524      2.00000
     42      10.3176      2.00000
     43      10.3456      2.00000
     44      10.9902      2.00000
     45      11.4639      2.00000
     46      11.6437      2.00000
     47      12.2599      2.00000
     48      12.4051      2.00000
     49      13.1742      0.00000
     50      13.1778      0.00000
     51      13.4891      0.00000
     52      13.6071      0.00000
     53      13.8788      0.00000
     54      14.0100      0.00000
     55      14.2124      0.00000
     56      14.5081      0.00000
     57      15.2654      0.00000
     58      15.5006      0.00000
     59      16.0477      0.00000
     60      16.2069      0.00000

 soft charge-density along one line, spin component           1
         0         1         2         3         4         5         6         7         8         9
 total charge-density along one line

------------------------ aborting loop because EDIFF is reached ----------------------------------------

  FREE ENERGIE OF THE ION-ELECTRON SYSTEM (eV)
  free  energy   TOTEN  =      -182.87194544 eV

  energy  without entropy=     -182.87010180  energy(sigma->0) =     -182.87102362

 writing wavefunctions