 vasp.6.2.0 18Jan21 (build Jan 05 2022 15:41:44) complex

 executed on             LinuxIFC date 2025.05.07  18:38:51

 INCAR:
   SYSTEM = routine with relax: pwdword
   ICHARG = 2
   NPAR = 6
   KPAR = 2
   NCORE = 2
   ADDGRID = T
   PREC = Acc
   ENCUT = 600
   METAGGA = R2SCAN
   LASPH = .TRUE.
   LMIXTAU = .FALSE.
   ALGO = A
   EDIFF = 1E-9
   NELM = 100
   NELMIN = 6
   IALGO = 38
   LREAL = F
   NSW = 0
   ISIF = -1
   ISMEAR = 0
   SIGMA = 0.02
   SYMPREC = 1E-4

 POTCAR:    PAW_PBE B 06Sep2000
 POTCAR:    PAW_PBE Mo_sv 02Feb2006
 POTCAR:    PAW_PBE Si 05Jan2001
|           W    W    AA    RRRRR   N    N  II  N    N   GGGG   !!!           |
|           W    W   A  A   R    R  NN   N  II  NN   N  G    G  !!!           |
|           W    W  A    A  R    R  N N  N  II  N N  N  G       !!!           |
|           W WW W  AAAAAA  RRRRR   N  N N  II  N  N N  G  GGG   !            |
|           WW  WW  A    A  R   R   N   NN  II  N   NN  G    G                |
|           W    W  A    A  R    R  N    N  II  N    N   GGGG   !!!           |
|     For optimal performance we recommend to set                             |
|       NCORE = 2 up to number-of-cores-per-socket                            |
|     This setting can greatly improve the performance of VASP for DFT.       |
|     The default, NCORE=1 might be grossly inefficient on modern             |
|     multi-core architectures or massively parallel machines. Do your        |
|     Unfortunately you need to use the default for GW and RPA                |
|     calculations (for HF NCORE is supported but not extensively tested      |
|     yet).                                                                   |

 POTCAR:    PAW_PBE B 06Sep2000
   VRHFIN =B: s2p1

   TITEL  = PAW_PBE B 06Sep2000
   POMASS =   10.811; ZVAL   =    3.000    mass and valenz
   ENMAX  =  318.614; ENMIN  =  238.960 eV

 POTCAR:    PAW_PBE Mo_sv 02Feb2006
   VRHFIN =Mo: 4p5s4d

   TITEL  = PAW_PBE Mo_sv 02Feb2006
   POMASS =   95.940; ZVAL   =   14.000    mass and valenz
   ENMAX  =  242.676; ENMIN  =  182.007 eV

 POTCAR:    PAW_PBE Si 05Jan2001
   VRHFIN =Si: s2p2

   TITEL  = PAW_PBE Si 05Jan2001
   POMASS =   28.085; ZVAL   =    4.000    mass and valenz
   ENMAX  =  245.345; ENMIN  =  184.009 eV

  PAW_PBE B 06Sep2000                   :
  PAW_PBE Mo_sv 02Feb2006               :
  PAW_PBE Si 05Jan2001                  :

 POSCAR: EA137
  positions in direct lattice

 METAGGA = R2SCA    LMAXTAU =  6    LMIXTAU =  F

 ion  position               nearest neighbor table
   1  0.746  0.246  0.991-  10 1.67
   2  0.754  0.746  0.500-   6 1.67
   3  0.254  0.754  0.009-   8 1.67
   4  0.246  0.254  0.500-  15 1.67
   5  0.971  0.750  0.221-   8 2.59   6 2.59  11 2.69  16 2.69  17 2.70  18 2.70   9 3.41  14 3.41

   6  0.891  0.609  0.500-   2 1.67   9 2.59  13 2.59  11 2.59   5 2.59  15 2.67
   7  0.529  0.750  0.779-  15 2.59  10 2.59  16 2.69  11 2.69  18 2.70  17 2.70  14 3.41   9 3.41

[...]

  18  0.000  0.000  0.000-   7 2.70  11 2.70  13 2.70  14 2.70  12 2.70   9 2.70   5 2.70  16 2.70

  LATTYP: Found a body centered tetragonal cell.
 ALAT       =     8.6302956378
 C/A-ratio  =     0.8872440665

  Lattice vectors:

 A1 = (   6.9108191358,   0.0000000000,  -2.0347510933)
 A2 = (  -3.8669298955,   5.7276761702,  -2.0347510933)
 A3 = (   0.0000000000,   0.0000000000,   7.2041400000)

Analysis of symmetry for initial positions (statically):
 Subroutine PRICEL returns:
 Original cell was already a primitive cell.

 Routine SETGRP: Setting up the symmetry group for a
 body centered tetragonal supercell.

 Subroutine GETGRP returns: Found 16 space group operations
 (whereof  8 operations were pure point group operations)
 out of a pool of 16 trial point group operations.

The static configuration has the point symmetry C_4h.
 The point group associated with its full space group is D_4h.

Analysis of symmetry for dynamics (positions and initial velocities):
 Subroutine PRICEL returns:
 Original cell was already a primitive cell.

 Routine SETGRP: Setting up the symmetry group for a
 body centered tetragonal supercell.

 Subroutine GETGRP returns: Found 16 space group operations
 (whereof  8 operations were pure point group operations)
 out of a pool of 16 trial point group operations.

The dynamic configuration has the point symmetry C_4h.
 The point group associated with its full space group is D_4h.

 Subroutine INISYM returns: Found 16 space group operations
 (whereof  8 operations are pure point group operations),
 and found     1 'primitive' translations

                                     Primitive cell

  volume of cell :     285.1610

  direct lattice vectors                    reciprocal lattice vectors
     6.910819136  0.000000000 -2.034751093     0.144700647  0.097691846  0.000000000
    -3.866929896  5.727676170 -2.034751093     0.000000000  0.174590876  0.000000000
     0.000000000  0.000000000  7.204140000     0.040869528  0.076904053  0.138809074

  length of vectors
     7.204140000  7.204140000  7.204140000     0.174590876  0.174590876  0.163867357

  position of ions in fractional coordinates (direct lattice)
     0.745680000  0.245680000  0.991360000
     0.754320000  0.745680000  0.500000000
     0.254320000  0.754320000  0.008640000
     0.245680000  0.254320000  0.500000000
     0.970770000  0.750000000  0.220770000
     0.890760000  0.609240000  0.500000000
     0.529230000  0.750000000  0.779230000
     0.390760000  0.890760000  0.281510000
     0.250000000  0.029230000  0.779230000
     0.609240000  0.109240000  0.718490000
     0.750000000  0.529230000  0.779230000
     0.029230000  0.250000000  0.779230000
     0.470770000  0.250000000  0.220770000
     0.250000000  0.470770000  0.220770000
     0.109240000  0.390760000  0.500000000
     0.750000000  0.970770000  0.220770000
     0.500000000  0.500000000  1.000000000
     0.000000000  0.000000000  0.000000000

  ion indices of the primitive-cell ions
   primitive index   ion index
                 1           1
                 2           2
                 3           3
                 4           4
                 5           5
                 6           6
                 7           7
                 8           8
                 9           9
                10          10
                11          11
                12          12
                13          13
                14          14
                15          15
                16          16
                17          17
                18          18

 KPOINTS: EA

Automatic generation of k-mesh.
 Grid dimensions read from file:
 generate k-points for:    6    6    6

 Generating k-lattice:

  Cartesian coordinates                     Fractional coordinates (reciprocal lattice)
     0.024116774  0.016281974  0.000000000     0.166666667  0.000000000  0.000000000
     0.000000000  0.029098479  0.000000000     0.000000000  0.166666667  0.000000000
     0.006811588  0.012817342  0.023134846    -0.000000000 -0.000000000  0.166666667

  Length of vectors
     0.029098479  0.029098479  0.027311226

  Shift w.r.t. Gamma in fractional coordinates (k-lattice)
     0.000000000  0.000000000  0.000000000

 Subroutine IBZKPT returns following result:

 Found     30 irreducible k-points:

 Following reciprocal coordinates:
            Coordinates               Weight
  0.000000  0.000000  0.000000      1.000000
  0.166667  0.000000  0.000000      8.000000
  0.333333 -0.000000  0.000000      8.000000
  0.500000  0.000000  0.000000      4.000000
  0.166667  0.166667  0.000000      8.000000
  0.333333  0.166667  0.000000     16.000000
  0.500000  0.166667  0.000000     16.000000
 -0.333333  0.166667  0.000000     16.000000
 -0.166667  0.166667  0.000000      4.000000
  0.333333  0.333333  0.000000      8.000000
  0.500000  0.333333  0.000000     16.000000
 -0.333333  0.333333  0.000000      4.000000
  0.500000  0.500000  0.000000      2.000000
  0.166667  0.166667  0.166667      8.000000
  0.333333  0.166667  0.166667      8.000000
 -0.166667  0.166667  0.166667      4.000000
  0.333333  0.333333  0.166667      4.000000
 -0.333333  0.333333  0.166667      8.000000
 -0.166667  0.333333  0.166667      8.000000
  0.500000  0.500000  0.166667      4.000000
 -0.333333  0.500000  0.166667     16.000000
 -0.166667  0.500000  0.166667      8.000000
 -0.333333 -0.333333  0.166667      8.000000
 -0.166667 -0.333333  0.166667      8.000000
 -0.166667 -0.166667  0.166667      2.000000
 -0.333333  0.333333  0.333333      4.000000
  0.500000  0.500000  0.333333      4.000000
 -0.333333  0.500000  0.333333      8.000000
 -0.333333 -0.333333  0.333333      2.000000
  0.500000  0.500000  0.500000      1.000000

 Following cartesian coordinates:
            Coordinates               Weight
  0.000000  0.000000  0.000000      1.000000
  0.024117  0.016282  0.000000      8.000000
  0.048234  0.032564  0.000000      8.000000
  0.072350  0.048846  0.000000      4.000000
  0.024117  0.045380  0.000000      8.000000
  0.048234  0.061662  0.000000     16.000000
  0.072350  0.077944  0.000000     16.000000
 -0.048234 -0.003465  0.000000     16.000000
 -0.024117  0.012817  0.000000      4.000000
  0.048234  0.090761  0.000000      8.000000
  0.072350  0.107043  0.000000     16.000000
 -0.048234  0.025633  0.000000      4.000000
  0.072350  0.136141  0.000000      2.000000
  0.030928  0.058198  0.023135      8.000000
  0.055045  0.074480  0.023135      8.000000
 -0.017305  0.025634  0.023135      4.000000
  0.055045  0.103578  0.023135      4.000000
 -0.041422  0.038450  0.023135      8.000000
 -0.017305  0.054732  0.023135      8.000000
  0.079162  0.148959  0.023135      4.000000
 -0.041422  0.067549  0.023135     16.000000
 -0.017305  0.083831  0.023135      8.000000
 -0.041422 -0.077944  0.023135      8.000000
 -0.017305 -0.061662  0.023135      8.000000
 -0.017305 -0.032563  0.023135      2.000000
 -0.034610  0.051268  0.046270      4.000000
  0.085973  0.161776  0.046270      4.000000
 -0.034610  0.080366  0.046270      8.000000
 -0.034610 -0.065126  0.046270      2.000000
  0.092785  0.174593  0.069405      1.000000

 SYSTEM =  routine with relax: pwdword
 POSCAR =  EA137

 Startparameter for this run:
   NWRITE =      2    write-flag & timer
   PREC   = acc       normal or accurate (medium, high low for compatibility)
   ISTART =      0    job   : 0-new  1-cont  2-samecut
   ICHARG =      2    charge: 1-file 2-atom 10-const
   ISPIN  =      1    spin polarized calculation?
   LNONCOLLINEAR =      F non collinear calculations
   LSORBIT =      F    spin-orbit coupling
   INIWAV =      1    electr: 0-lowe 1-rand  2-diag
   LASPH  =      T    aspherical Exc in radial PAW
   METAGGA=      F    non-selfconsistent MetaGGA calc.

 Electronic Relaxation 1
   ENCUT  =  600.0 eV  44.10 Ry    6.64 a.u.  14.39 14.39 14.39*2*pi/ulx,y,z
   ENINI  =  600.0     initial cutoff
   ENAUG  =  535.5 eV  augmentation charge cutoff
   NELM   =    100;   NELMIN=  6; NELMDL= -5     # of ELM steps
   EDIFF  = 0.1E-08   stopping-criterion for ELM
   LREAL  =      F    real-space projection
   NLSPLINE    = F    spline interpolate recip. space projectors
[...]
 Hartree-type preconditioning will be used
 using additional bands           20
 reciprocal scheme for non local part
 use partial core corrections
 no Harris-corrections to forces
 use gradient corrections
 use of overlap-Matrix (Vanderbilt PP)
 Gauss-broadening in eV      SIGMA  =   0.02

  energy-cutoff  :      600.00
  volume of cell :      285.16
      direct lattice vectors                 reciprocal lattice vectors
     6.910819136  0.000000000 -2.034751093     0.144700647  0.097691846  0.000000000
    -3.866929896  5.727676170 -2.034751093     0.000000000  0.174590876  0.000000000
     0.000000000  0.000000000  7.204140000     0.040869528  0.076904053  0.138809074

  length of vectors
     7.204140000  7.204140000  7.204140000     0.174590876  0.174590876  0.163867357

 k-points in units of 2pi/SCALE and weight: EA
   0.00000000  0.00000000  0.00000000       0.005
   0.02411677  0.01628197  0.00000000       0.037
   0.04823355  0.03256395  0.00000000       0.037
   0.07235032  0.04884592  0.00000000       0.019
   0.02411677  0.04538045  0.00000000       0.037
   0.04823355  0.06166243  0.00000000       0.074
   0.07235032  0.07794440  0.00000000       0.074
  -0.04823355 -0.00346547  0.00000000       0.074
  -0.02411677  0.01281651  0.00000000       0.019
   0.04823355  0.09076091  0.00000000       0.037
   0.07235032  0.10704288  0.00000000       0.074
  -0.04823355  0.02563301  0.00000000       0.019
   0.07235032  0.13614136  0.00000000       0.009
   0.03092836  0.05819780  0.02313485       0.037
   0.05504514  0.07447977  0.02313485       0.037
  -0.01730519  0.02563385  0.02313485       0.019
   0.05504514  0.10357825  0.02313485       0.019
  -0.04142196  0.03845035  0.02313485       0.037
  -0.01730519  0.05473233  0.02313485       0.037
   0.07916191  0.14895870  0.02313485       0.019
  -0.04142196  0.06754883  0.02313485       0.074
  -0.01730519  0.08383081  0.02313485       0.037
  -0.04142196 -0.07794357  0.02313485       0.037
  -0.01730519 -0.06166159  0.02313485       0.037
  -0.01730519 -0.03256311  0.02313485       0.009
  -0.03461037  0.05126769  0.04626969       0.019
   0.08597350  0.16177605  0.04626969       0.019
  -0.03461037  0.08036617  0.04626969       0.037
  -0.03461037 -0.06512622  0.04626969       0.009
   0.09278509  0.17459339  0.06940454       0.005

 k-points in reciprocal lattice and weights: EA
   0.00000000  0.00000000  0.00000000       0.005
   0.16666667  0.00000000  0.00000000       0.037
   0.33333333 -0.00000000  0.00000000       0.037
   0.50000000  0.00000000  0.00000000       0.019
   0.16666667  0.16666667  0.00000000       0.037
   0.33333333  0.16666667  0.00000000       0.074
   0.50000000  0.16666667  0.00000000       0.074
  -0.33333333  0.16666667  0.00000000       0.074
  -0.16666667  0.16666667  0.00000000       0.019
   0.33333333  0.33333333  0.00000000       0.037
   0.50000000  0.33333333  0.00000000       0.074
  -0.33333333  0.33333333  0.00000000       0.019
   0.50000000  0.50000000  0.00000000       0.009
   0.16666667  0.16666667  0.16666667       0.037
   0.33333333  0.16666667  0.16666667       0.037
  -0.16666667  0.16666667  0.16666667       0.019
   0.33333333  0.33333333  0.16666667       0.019
  -0.33333333  0.33333333  0.16666667       0.037
  -0.16666667  0.33333333  0.16666667       0.037
   0.50000000  0.50000000  0.16666667       0.019
  -0.33333333  0.50000000  0.16666667       0.074
  -0.16666667  0.50000000  0.16666667       0.037
  -0.33333333 -0.33333333  0.16666667       0.037
  -0.16666667 -0.33333333  0.16666667       0.037
  -0.16666667 -0.16666667  0.16666667       0.009
  -0.33333333  0.33333333  0.33333333       0.019
   0.50000000  0.50000000  0.33333333       0.019
  -0.33333333  0.50000000  0.33333333       0.037
  -0.33333333 -0.33333333  0.33333333       0.009
   0.50000000  0.50000000  0.50000000       0.005

 position of ions in fractional coordinates (direct lattice)
   0.74568000  0.24568000  0.99136000
   0.75432000  0.74568000  0.50000000
   0.25432000  0.75432000  0.00864000
   0.24568000  0.25432000  0.50000000
   0.97077000  0.75000000  0.22077000
   0.89076000  0.60924000  0.50000000
   0.52923000  0.75000000  0.77923000
   0.39076000  0.89076000  0.28151000
   0.25000000  0.02923000  0.77923000
   0.60924000  0.10924000  0.71849000
   0.75000000  0.52923000  0.77923000
   0.02923000  0.25000000  0.77923000
   0.47077000  0.25000000  0.22077000
   0.25000000  0.47077000  0.22077000
   0.10924000  0.39076000  0.50000000
   0.75000000  0.97077000  0.22077000
   0.50000000  0.50000000  0.00000000
   0.00000000  0.00000000  0.00000000

 position of ions in cartesian coordinates  (Angst):
   4.20323228  1.40717548  5.12472539
   2.32947681  4.27101357  0.54994336
  -1.15934304  4.32050069 -1.99008757
   0.71441243  1.45666260  2.58469445
   3.80861847  4.29575713 -1.91088065
   3.79999288  3.48952943  0.54994336
   0.75721539  4.29575713  3.01076737
  -0.74403479  5.10198483 -0.57953677
   1.61467442  0.16741997  5.04551846
   3.78792403  0.62569134  3.71417458
   3.13661904  3.03125806  3.01076737
  -0.76472923  1.43191904  5.04551846
   2.28667385  1.43191904  0.12387044
  -0.09272980  2.69641811  0.12387044
  -0.75610364  2.23814674  2.58469445
   1.42921482  5.56025620 -1.91088065
   1.52194462  2.86383809 -2.03475109
   0.00000000  0.00000000  0.00000000

 k-point   1 :   0.0000 0.0000 0.0000  plane waves:    9567
 k-point   2 :   0.1667 0.0000 0.0000  plane waves:    9556
 k-point   3 :   0.3333-0.0000 0.0000  plane waves:    9532
 k-point   4 :   0.5000 0.0000 0.0000  plane waves:    9504
 k-point   5 :   0.1667 0.1667 0.0000  plane waves:    9528
 k-point   6 :   0.3333 0.1667 0.0000  plane waves:    9517
 k-point   7 :   0.5000 0.1667 0.0000  plane waves:    9514
 k-point   8 :  -0.3333 0.1667 0.0000  plane waves:    9516
 k-point   9 :  -0.1667 0.1667 0.0000  plane waves:    9523
 k-point  10 :   0.3333 0.3333 0.0000  plane waves:    9498
 k-point  11 :   0.5000 0.3333 0.0000  plane waves:    9522
 k-point  12 :  -0.3333 0.3333 0.0000  plane waves:    9528
 k-point  13 :   0.5000 0.5000 0.0000  plane waves:    9500
 k-point  14 :   0.1667 0.1667 0.1667  plane waves:    9527
 k-point  15 :   0.3333 0.1667 0.1667  plane waves:    9510
 k-point  16 :  -0.1667 0.1667 0.1667  plane waves:    9531
 k-point  17 :   0.3333 0.3333 0.1667  plane waves:    9522
 k-point  18 :  -0.3333 0.3333 0.1667  plane waves:    9540
 k-point  19 :  -0.1667 0.3333 0.1667  plane waves:    9505
 k-point  20 :   0.5000 0.5000 0.1667  plane waves:    9536
 k-point  21 :  -0.3333 0.5000 0.1667  plane waves:    9524
 k-point  22 :  -0.1667 0.5000 0.1667  plane waves:    9512
 k-point  23 :  -0.3333-0.3333 0.1667  plane waves:    9493
 k-point  24 :  -0.1667-0.3333 0.1667  plane waves:    9527
 k-point  25 :  -0.1667-0.1667 0.1667  plane waves:    9535
 k-point  26 :  -0.3333 0.3333 0.3333  plane waves:    9495
 k-point  27 :   0.5000 0.5000 0.3333  plane waves:    9508
 k-point  28 :  -0.3333 0.5000 0.3333  plane waves:    9498
 k-point  29 :  -0.3333-0.3333 0.3333  plane waves:    9503
 k-point  30 :   0.5000 0.5000 0.5000  plane waves:    9500

 maximum and minimum number of plane-waves per node :      4873     4660

 maximum number of plane-waves:      9567
 maximum index in each direction:
   IXMAX=   14   IYMAX=   14   IZMAX=   14
   IXMIN=  -14   IYMIN=  -14   IZMIN=  -14

 parallel 3D FFT for wavefunctions:
    minimum data exchange during FFTs selected (reduces bandwidth)
 parallel 3D FFT for charge:
    minimum data exchange during FFTs selected (reduces bandwidth)

 Broyden mixing: mesh for mixing (old mesh)
   NGX = 29   NGY = 29   NGZ = 29
  (NGX  =120   NGY  =120   NGZ  =120)
  gives a total of  24389 points

 initial charge density was supplied:
 charge density of overlapping atoms calculated
 number of electron     188.0000000 magnetization
 keeping initial charge density in first step

 Maximum index for augmentation-charges        21499 (set IRDMAX)

 First call to EWALD:  gamma=   0.269
 Maximum number of real-space cells 3x 3x 3
 Maximum number of reciprocal cells 3x 3x 3

--------------------------------------- Iteration      1(   1)  ---------------------------------------

 eigenvalue-minimisations  :  6948
 total energy-change (2. order) : 0.2245863E+04  (-0.1291044E+05)
 number of electron     188.0000000 magnetization
 augmentation part      188.0000000 magnetization

 Free energy of the ion-electron system (eV)
  alpha Z        PSCENC =      1112.96264299
  Ewald energy   TEWEN  =    -17807.29028340
  -Hartree energ DENC   =     -5019.38091697
  -exchange      EXHF   =         0.00000000
  -V(xc)+E(xc)   XCENC  =       936.20839646
  PAW double counting   =     18167.42904368   -18107.57746203
  entropy T*S    EENTRO =        -0.00175987
  eigenvalues    EBANDS =       125.31170701
  atomic energy  EATOM  =     22838.20177132
  free energy    TOTEN  =      2245.86313919 eV

  energy without entropy =     2245.86489906  energy(sigma->0) =     2245.86401912

[...]

 eigenvalue-minimisations  :  7368
 total energy-change (2. order) :-0.2543033E+04  (-0.2476933E+04)
 number of electron     188.0000000 magnetization
 augmentation part      188.0000000 magnetization

[...]

 eigenvalue-minimisations  :     0
 total energy-change (2. order) :-0.2204615E-08  (-0.1457839E-08)
 number of electron     188.0000009 magnetization
 augmentation part       29.1043064 magnetization

[...]

--------------------------------------- Iteration      1(  40)  ---------------------------------------

 eigenvalue-minimisations  :     0
 total energy-change (2. order) : 0.2364686E-09  (-0.9710445E-09)
 number of electron     188.0000009 magnetization
 augmentation part       29.1043061 magnetization

 Free energy of the ion-electron system (eV)
  alpha Z        PSCENC =      1112.96264299
  Ewald energy   TEWEN  =    -17807.29028340
  -Hartree energ DENC   =     -4815.44342277
  -exchange      EXHF   =         0.00000000
  -V(xc)+E(xc)   XCENC  =       954.80658115
  PAW double counting   =     22500.19215646   -22475.54081294
  entropy T*S    EENTRO =        -0.00552523
  eigenvalues    EBANDS =     -2639.23010990
  atomic energy  EATOM  =     22838.20177132
  free energy    TOTEN  =      -331.34700229 eV

  energy without entropy =     -331.34147707  energy(sigma->0) =     -331.34423968

  average scaling for gradient   0.9676

 average (electrostatic) potential at core
  the test charge radii are     0.7672  1.0818  0.9892
  (the norm of the test charge is              1.0000)
       1 -25.1951       2 -25.1909       3 -25.1951       4 -25.1909       5 -77.4096
       6 -76.4838       7 -77.4107       8 -76.4830       9 -77.4107      10 -76.4830
      11 -77.4096      12 -77.4096      13 -77.4107      14 -77.4096      15 -76.4838
      16 -77.4107      17 -83.2742      18 -83.2742

 E-fermi :   9.4325     XC(G=0): -12.9364     alpha+bet :-16.3871

 Fermi energy:         9.4324812539

 k-point     1 :       0.0000    0.0000    0.0000
  band No.  band energies     occupation
      1     -53.5469      2.00000
      2     -53.5045      2.00000
      3     -53.4541      2.00000
      4     -53.4540      2.00000
      5     -53.4362      2.00000
      6     -53.4362      2.00000
      7     -53.3690      2.00000
      8     -53.3626      2.00000
      9     -52.8051      2.00000
     10     -52.7699      2.00000
     11     -52.7127      2.00000
     12     -52.7122      2.00000
     13     -27.3097      2.00000
     14     -27.2617      2.00000
     15     -27.2538      2.00000
     16     -27.2495      2.00000
     17     -27.1861      2.00000
     18     -27.1556      2.00000
     19     -27.1556      2.00000
     20     -27.1388      2.00000
     21     -27.1387      2.00000
     22     -27.1059      2.00000
     23     -27.1036      2.00000
     24     -27.1035      2.00000
     25     -27.0664      2.00000
     26     -27.0549      2.00000
     27     -27.0547      2.00000
     28     -26.9846      2.00000
     29     -26.9680      2.00000
     30     -26.7565      2.00000
     31     -26.7426      2.00000
     32     -26.7307      2.00000
     33     -26.6963      2.00000
     34     -26.6962      2.00000
     35     -26.6249      2.00000
     36     -26.6248      2.00000
     37     -26.5978      2.00000
     38     -26.5050      2.00000
     39     -26.4614      2.00000
     40     -26.4613      2.00000
     41     -25.9279      2.00000
     42     -25.8874      2.00000
     43     -25.8867      2.00000
     44     -25.8629      2.00000
     45     -25.8083      2.00000
     46     -25.7992      2.00000
     47     -25.7987      2.00000
     48     -25.7608      2.00000
     49      -0.7347      2.00000
     50       0.5754      2.00000
     51       2.3228      2.00000
     52       2.5064      2.00000
     53       2.5189      2.00000
     54       2.5207      2.00000
     55       3.8361      2.00000
     56       3.8370      2.00000
     57       4.0914      2.00000
     58       4.6932      2.00000
     59       4.8257      2.00000
     60       4.8768      2.00000
[...]
    100      10.1296      0.00000
    101      10.2619      0.00000
    102      10.2619      0.00000
    103      10.3602      0.00000
    104      10.3813      0.00000
    105      10.8422      0.00000
    106      10.8791      0.00000
    107      11.0935      0.00000
    108      11.1678      0.00000
    109      11.1686      0.00000
    110      11.4623      0.00000
    111      11.7864      0.00000
    112      11.8279      0.00000
    113      11.9811      0.00000
    114      12.0657      0.00000

[...]

 k-point    30 :       0.5000    0.5000    0.5000
  band No.  band energies     occupation
      1     -53.5132      2.00000
      2     -53.5068      2.00000
      3     -53.4546      2.00000
      4     -53.4546      2.00000
      5     -53.4360      2.00000
      6     -53.4360      2.00000
      7     -53.4103      2.00000
      8     -53.3604      2.00000
      9     -52.8051      2.00000
     10     -52.7621      2.00000
     11     -52.7123      2.00000
     12     -52.7118      2.00000
     13     -27.4612      2.00000
     14     -27.3686      2.00000
     15     -27.3394      2.00000
     16     -27.3391      2.00000
     17     -27.2964      2.00000
     18     -27.2554      2.00000
     19     -27.2552      2.00000
     20     -27.2549      2.00000
     21     -27.1705      2.00000
     22     -27.0675      2.00000
     23     -27.0030      2.00000
     24     -26.9558      2.00000
     25     -26.9542      2.00000
     26     -26.9542      2.00000
     27     -26.8982      2.00000
     28     -26.8982      2.00000
     29     -26.8821      2.00000
     30     -26.8552      2.00000
     31     -26.6778      2.00000
     32     -26.6777      2.00000
     33     -26.6013      2.00000
     34     -26.5754      2.00000
     35     -26.5753      2.00000
     36     -26.5378      2.00000
     37     -26.4976      2.00000
     38     -26.4799      2.00000
     39     -26.4307      2.00000
     40     -26.4307      2.00000
     41     -26.0426      2.00000
     42     -26.0319      2.00000
     43     -25.9244      2.00000
     44     -25.9236      2.00000
     45     -25.8674      2.00000
     46     -25.8669      2.00000
     47     -25.8287      2.00000
     48     -25.7471      2.00000
     49      -0.0745      2.00000
     50       0.3245      2.00000
     51       1.8939      2.00000
     52       1.8958      2.00000
     53       2.2734      2.00000
     54       3.1018      2.00000
     55       3.5608      2.00000
     56       3.9293      2.00000
     57       4.1396      2.00000
     58       4.1404      2.00000
     59       4.6899      2.00000
     60       5.1166      2.00000
[...]
    100       9.9897      0.00000
    101      10.0370      0.00000
    102      10.1742      0.00000
    103      10.4972      0.00000
    104      10.5883      0.00000
    105      10.5886      0.00000
    106      11.1390      0.00000
    107      11.1578      0.00000
    108      11.3637      0.00000
    109      11.4131      0.00000
    110      11.4991      0.00000
    111      11.5627      0.00000
    112      11.5955      0.00000
    113      11.7280      0.00000
    114      11.7843      0.00000

 soft charge-density along one line, spin component           1
         0         1         2         3         4         5         6         7         8         9
 total charge-density along one line

------------------------ aborting loop because EDIFF is reached ----------------------------------------

  FREE ENERGIE OF THE ION-ELECTRON SYSTEM (eV)
  free  energy   TOTEN  =      -331.34700229 eV

  energy  without entropy=     -331.34147707  energy(sigma->0) =     -331.34423968

 writing wavefunctions