 vasp.6.2.0 18Jan21 (build Jan 05 2022 15:41:44) complex

 executed on             LinuxIFC date 2025.05.07  14:21:04

 INCAR:
   SYSTEM = routine with relax: pwdword
   ICHARG = 2
   NPAR = 6
   KPAR = 2
   NCORE = 2
   ADDGRID = T
   PREC = Acc
   ENCUT = 600
   METAGGA = R2SCAN
   LASPH = .TRUE.
   LMIXTAU = .FALSE.
   ALGO = A
   EDIFF = 1E-9
   NELM = 100
   NELMIN = 6
   IALGO = 38
   LREAL = F
   NSW = 0
   ISIF = -1
   ISMEAR = 0
   SIGMA = 0.02
   SYMPREC = 1E-4

 POTCAR:    PAW_PBE B 06Sep2000
 POTCAR:    PAW_PBE Mo_sv 02Feb2006
 POTCAR:    PAW_PBE Si 05Jan2001
|           W    W    AA    RRRRR   N    N  II  N    N   GGGG   !!!           |
|           W    W   A  A   R    R  NN   N  II  NN   N  G    G  !!!           |
|           W    W  A    A  R    R  N N  N  II  N N  N  G       !!!           |
|           W WW W  AAAAAA  RRRRR   N  N N  II  N  N N  G  GGG   !            |
|           WW  WW  A    A  R   R   N   NN  II  N   NN  G    G                |
|           W    W  A    A  R    R  N    N  II  N    N   GGGG   !!!           |
|     For optimal performance we recommend to set                             |
|       NCORE = 2 up to number-of-cores-per-socket                            |
|     This setting can greatly improve the performance of VASP for DFT.       |
|     The default, NCORE=1 might be grossly inefficient on modern             |
|     multi-core architectures or massively parallel machines. Do your        |
|     Unfortunately you need to use the default for GW and RPA                |
|     calculations (for HF NCORE is supported but not extensively tested      |
|     yet).                                                                   |

 POTCAR:    PAW_PBE B 06Sep2000
   VRHFIN =B: s2p1

   TITEL  = PAW_PBE B 06Sep2000
   POMASS =   10.811; ZVAL   =    3.000    mass and valenz
   ENMAX  =  318.614; ENMIN  =  238.960 eV

 POTCAR:    PAW_PBE Mo_sv 02Feb2006
   VRHFIN =Mo: 4p5s4d

   TITEL  = PAW_PBE Mo_sv 02Feb2006
   POMASS =   95.940; ZVAL   =   14.000    mass and valenz
   ENMAX  =  242.676; ENMIN  =  182.007 eV

 POTCAR:    PAW_PBE Si 05Jan2001
   VRHFIN =Si: s2p2

   TITEL  = PAW_PBE Si 05Jan2001
   POMASS =   28.085; ZVAL   =    4.000    mass and valenz
   ENMAX  =  245.345; ENMIN  =  184.009 eV

  PAW_PBE B 06Sep2000                   :
  PAW_PBE Mo_sv 02Feb2006               :
  PAW_PBE Si 05Jan2001                  :

 POSCAR: EA14
  positions in direct lattice

 METAGGA = R2SCA    LMAXTAU =  6    LMIXTAU =  F

 ion  position               nearest neighbor table
   1  0.242  0.742  0.984-   8 2.19   5 2.33
   2  0.758  0.258  0.016-   8 2.19   5 2.33
   3  0.742  0.758  0.500-   5 2.19   8 2.33
   4  0.258  0.242  0.500-   5 2.19   8 2.33
   5  0.500  0.000  0.500-   6 2.07   7 2.07   3 2.19   4 2.19   2 2.33   1 2.33
   6  0.250  0.750  0.500-   5 2.07   8 2.07   9 3.19  10 3.19   9 3.19  10 3.19
   7  0.750  0.250  0.500-   5 2.07   8 2.07   9 3.19  10 3.19  10 3.19   9 3.19
   8  0.000  0.500  0.500-   6 2.07   7 2.07   1 2.19   2 2.19   3 2.33   4 2.33
   9  0.250  0.250  0.000-   6 3.19   7 3.19   6 3.19   7 3.19
  10  0.750  0.750  0.000-   6 3.19   7 3.19   7 3.19   6 3.19

  LATTYP: Found a body centered tetragonal cell.
 ALAT       =     6.3872109114
 C/A-ratio  =     1.2976053265

  Lattice vectors:

 A1 = (   5.4517799250,   0.0000000000,  -2.8017140187)
 A2 = (  -2.0314432097,   5.0591642429,  -2.8017140187)
 A3 = (   0.0000000000,   0.0000000000,   6.1295600000)

Analysis of symmetry for initial positions (statically):
 Subroutine PRICEL returns:
 Original cell was already a primitive cell.

 Routine SETGRP: Setting up the symmetry group for a
 body centered tetragonal supercell.

 Subroutine GETGRP returns: Found 16 space group operations
 (whereof  8 operations were pure point group operations)
 out of a pool of 16 trial point group operations.

The static configuration has the point symmetry C_4h.
 The point group associated with its full space group is D_4h.

Analysis of symmetry for dynamics (positions and initial velocities):
 Subroutine PRICEL returns:
 Original cell was already a primitive cell.

 Routine SETGRP: Setting up the symmetry group for a
 body centered tetragonal supercell.

 Subroutine GETGRP returns: Found 16 space group operations
 (whereof  8 operations were pure point group operations)
 out of a pool of 16 trial point group operations.

The dynamic configuration has the point symmetry C_4h.
 The point group associated with its full space group is D_4h.

 Subroutine INISYM returns: Found 16 space group operations
 (whereof  8 operations are pure point group operations),
 and found     1 'primitive' translations

                                     Primitive cell

  volume of cell :     169.0622

  direct lattice vectors                    reciprocal lattice vectors
     5.451779925  0.000000000 -2.801714019     0.183426333  0.073652517  0.000000000
    -2.031443210  5.059164243 -2.801714019     0.000000000  0.197661106  0.000000000
     0.000000000  0.000000000  6.129560000     0.083840949  0.124012683  0.163143847

  length of vectors
     6.129560000  6.129560000  6.129560000     0.197661106  0.197661106  0.221414465

  position of ions in fractional coordinates (direct lattice)
     0.242110000  0.742110000  0.984220000
     0.757890000  0.257890000  0.015780000
     0.742110000  0.757890000  0.500000000
     0.257890000  0.242110000  0.500000000
     0.500000000  0.000000000  0.500000000
     0.250000000  0.750000000  0.500000000
     0.750000000  0.250000000  0.500000000
     0.000000000  0.500000000  0.500000000
     0.250000000  0.250000000  1.000000000
     0.750000000  0.750000000  1.000000000

  ion indices of the primitive-cell ions
   primitive index   ion index
                 1           1
                 2           2
                 3           3
                 4           4
                 5           5
                 6           6
                 7           7
                 8           8
                 9           9
                10          10

 KPOINTS: EA

Automatic generation of k-mesh.
 Grid dimensions read from file:
 generate k-points for:    7    7    8

 Generating k-lattice:

  Cartesian coordinates                     Fractional coordinates (reciprocal lattice)
     0.026203762  0.010521788  0.000000000     0.142857143 -0.000000000  0.000000000
     0.000000000  0.028237301  0.000000000     0.000000000  0.142857143  0.000000000
     0.010480119  0.015501585  0.020392981     0.000000000 -0.000000000  0.125000000

  Length of vectors
     0.028237301  0.028237301  0.027676808

  Shift w.r.t. Gamma in fractional coordinates (k-lattice)
     0.000000000  0.000000000  0.000000000

 WARNING: IBZKPT: internal override: KBLOWUP is changed to .FALSE.
      ... skipping the blow-up phase ...

 Subroutine IBZKPT returns following result:

 Found    116 irreducible k-points:

 Following reciprocal coordinates:
            Coordinates               Weight
  0.000000  0.000000  0.000000      1.000000
  0.142857  0.000000  0.000000      4.000000
  0.285714  0.000000  0.000000      4.000000
  0.428571  0.000000  0.000000      4.000000
  0.142857  0.142857  0.000000      2.000000
  0.285714  0.142857  0.000000      4.000000
  0.428571  0.142857  0.000000      4.000000
 -0.428571  0.142857  0.000000      4.000000
 -0.285714  0.142857  0.000000      4.000000
 -0.142857  0.142857  0.000000      2.000000
  0.285714  0.285714  0.000000      2.000000
  0.428571  0.285714  0.000000      4.000000
 -0.428571  0.285714  0.000000      4.000000
 -0.285714  0.285714  0.000000      2.000000
  0.428571  0.428571  0.000000      2.000000
 -0.428571  0.428571  0.000000      2.000000
  0.000000  0.000000  0.125000      2.000000
  0.142857  0.000000  0.125000      4.000000
  0.285714 -0.000000  0.125000      4.000000
  0.428571  0.000000  0.125000      4.000000
 -0.428571  0.000000  0.125000      4.000000
 -0.285714  0.000000  0.125000      4.000000
 -0.142857 -0.000000  0.125000      4.000000
  0.142857  0.142857  0.125000      2.000000
  0.285714  0.142857  0.125000      4.000000
  0.428571  0.142857  0.125000      4.000000
 -0.428571  0.142857  0.125000      4.000000
 -0.285714  0.142857  0.125000      4.000000
 -0.142857  0.142857  0.125000      4.000000
  0.285714  0.285714  0.125000      2.000000
  0.428571  0.285714  0.125000      4.000000
 -0.428571  0.285714  0.125000      4.000000
 -0.285714  0.285714  0.125000      4.000000
 -0.142857  0.285714  0.125000      4.000000
  0.428571  0.428571  0.125000      2.000000
 -0.428571  0.428571  0.125000      4.000000
 -0.285714  0.428571  0.125000      4.000000
 -0.142857  0.428571  0.125000      4.000000
 -0.428571 -0.428571  0.125000      2.000000
 -0.285714 -0.428571  0.125000      4.000000
 -0.142857 -0.428571  0.125000      4.000000
 -0.285714 -0.285714  0.125000      2.000000
 -0.142857 -0.285714  0.125000      4.000000
 -0.142857 -0.142857  0.125000      2.000000
  0.000000  0.000000  0.250000      2.000000
  0.142857  0.000000  0.250000      4.000000
  0.285714  0.000000  0.250000      4.000000
  0.428571  0.000000  0.250000      4.000000
 -0.428571 -0.000000  0.250000      4.000000
 -0.285714 -0.000000  0.250000      4.000000
 -0.142857  0.000000  0.250000      4.000000
  0.142857  0.142857  0.250000      2.000000
  0.285714  0.142857  0.250000      4.000000
  0.428571  0.142857  0.250000      4.000000
 -0.428571  0.142857  0.250000      4.000000
 -0.285714  0.142857  0.250000      4.000000
 -0.142857  0.142857  0.250000      4.000000
  0.285714  0.285714  0.250000      2.000000
  0.428571  0.285714  0.250000      4.000000
 -0.428571  0.285714  0.250000      4.000000
[...]
  0.142857  0.000000  0.500000      4.000000
  0.285714 -0.000000  0.500000      4.000000
  0.428571  0.000000  0.500000      4.000000
  0.142857  0.142857  0.500000      2.000000
  0.285714  0.142857  0.500000      4.000000
  0.428571  0.142857  0.500000      4.000000
 -0.428571  0.142857  0.500000      4.000000
 -0.285714  0.142857  0.500000      4.000000
 -0.142857  0.142857  0.500000      2.000000
  0.285714  0.285714  0.500000      2.000000
  0.428571  0.285714  0.500000      4.000000
 -0.428571  0.285714  0.500000      4.000000
 -0.285714  0.285714  0.500000      2.000000
  0.428571  0.428571  0.500000      2.000000
 -0.428571  0.428571  0.500000      2.000000

 Following cartesian coordinates:
            Coordinates               Weight
  0.000000  0.000000  0.000000      1.000000
  0.026204  0.010522  0.000000      4.000000
  0.052408  0.021044  0.000000      4.000000
  0.078611  0.031565  0.000000      4.000000
  0.026204  0.038759  0.000000      2.000000
  0.052408  0.049281  0.000000      4.000000
  0.078611  0.059803  0.000000      4.000000
 -0.078611 -0.003328  0.000000      4.000000
 -0.052408  0.007194  0.000000      4.000000
 -0.026204  0.017716  0.000000      2.000000
  0.052408  0.077518  0.000000      2.000000
  0.078611  0.088040  0.000000      4.000000
 -0.078611  0.024909  0.000000      4.000000
 -0.052408  0.035431  0.000000      2.000000
  0.078611  0.116277  0.000000      2.000000
 -0.078611  0.053147  0.000000      2.000000
[...]
   0.00000000  0.00000000  0.00000000       0.003
   0.14285714  0.00000000  0.00000000       0.010
   0.28571429  0.00000000  0.00000000       0.010
   0.42857143  0.00000000  0.00000000       0.010
   0.14285714  0.14285714  0.00000000       0.005
   0.28571429  0.14285714  0.00000000       0.010
   0.42857143  0.14285714  0.00000000       0.010
  -0.42857143  0.14285714  0.00000000       0.010
  -0.28571429  0.14285714  0.00000000       0.010
  -0.14285714  0.14285714  0.00000000       0.005
   0.28571429  0.28571429  0.00000000       0.005
   0.42857143  0.28571429  0.00000000       0.010
  -0.42857143  0.28571429  0.00000000       0.010
  -0.28571429  0.28571429  0.00000000       0.005
   0.42857143  0.42857143  0.00000000       0.005
  -0.42857143  0.42857143  0.00000000       0.005
   0.00000000  0.00000000  0.12500000       0.005
   0.14285714  0.00000000  0.12500000       0.010
   0.28571429 -0.00000000  0.12500000       0.010
   0.42857143  0.00000000  0.12500000       0.010
  -0.42857143  0.00000000  0.12500000       0.010
  -0.28571429  0.00000000  0.12500000       0.010
  -0.14285714 -0.00000000  0.12500000       0.010
   0.14285714  0.14285714  0.12500000       0.005
   0.28571429  0.14285714  0.12500000       0.010
   0.42857143  0.14285714  0.12500000       0.010
  -0.42857143  0.14285714  0.12500000       0.010
  -0.28571429  0.14285714  0.12500000       0.010
  -0.14285714  0.14285714  0.12500000       0.010
   0.28571429  0.28571429  0.12500000       0.005
   0.42857143  0.28571429  0.12500000       0.010
  -0.42857143  0.28571429  0.12500000       0.010
  -0.28571429  0.28571429  0.12500000       0.010
  -0.14285714  0.28571429  0.12500000       0.010
   0.42857143  0.42857143  0.12500000       0.005
  -0.42857143  0.42857143  0.12500000       0.010
  -0.28571429  0.42857143  0.12500000       0.010
  -0.14285714  0.42857143  0.12500000       0.010
  -0.42857143 -0.42857143  0.12500000       0.005
  -0.28571429 -0.42857143  0.12500000       0.010
  -0.14285714 -0.42857143  0.12500000       0.010
  -0.28571429 -0.28571429  0.12500000       0.005
  -0.14285714 -0.28571429  0.12500000       0.010
  -0.14285714 -0.14285714  0.12500000       0.005
   0.00000000  0.00000000  0.25000000       0.005
   0.14285714  0.00000000  0.25000000       0.010
   0.28571429  0.00000000  0.25000000       0.010
   0.42857143  0.00000000  0.25000000       0.010
  -0.42857143 -0.00000000  0.25000000       0.010
  -0.28571429 -0.00000000  0.25000000       0.010
  -0.14285714  0.00000000  0.25000000       0.010
   0.14285714  0.14285714  0.25000000       0.005
   0.28571429  0.14285714  0.25000000       0.010
   0.42857143  0.14285714  0.25000000       0.010
  -0.42857143  0.14285714  0.25000000       0.010
  -0.28571429  0.14285714  0.25000000       0.010
  -0.14285714  0.14285714  0.25000000       0.010
   0.28571429  0.28571429  0.25000000       0.005
   0.42857143  0.28571429  0.25000000       0.010
  -0.42857143  0.28571429  0.25000000       0.010
[...]
   0.14285714  0.00000000  0.50000000       0.010
   0.28571429 -0.00000000  0.50000000       0.010
   0.42857143  0.00000000  0.50000000       0.010
   0.14285714  0.14285714  0.50000000       0.005
   0.28571429  0.14285714  0.50000000       0.010
   0.42857143  0.14285714  0.50000000       0.010
  -0.42857143  0.14285714  0.50000000       0.010
  -0.28571429  0.14285714  0.50000000       0.010
  -0.14285714  0.14285714  0.50000000       0.005
   0.28571429  0.28571429  0.50000000       0.005
   0.42857143  0.28571429  0.50000000       0.010
  -0.42857143  0.28571429  0.50000000       0.010
  -0.28571429  0.28571429  0.50000000       0.005
   0.42857143  0.42857143  0.50000000       0.005
  -0.42857143  0.42857143  0.50000000       0.005

 position of ions in fractional coordinates (direct lattice)
   0.24211000  0.74211000  0.98422000
   0.75789000  0.25789000  0.01578000
   0.74211000  0.75789000  0.50000000
   0.25789000  0.24211000  0.50000000
   0.50000000  0.00000000  0.50000000
   0.25000000  0.75000000  0.50000000
   0.75000000  0.25000000  0.50000000
   0.00000000  0.50000000  0.50000000
   0.25000000  0.25000000  0.00000000
   0.75000000  0.75000000  0.00000000

 position of ions in cartesian coordinates  (Angst):
  -0.18762388  3.75445638  3.27533257
   3.60796060  1.30470787 -2.74920061
   2.50620991  3.83428999 -1.13779103
   0.91412681  1.22487425  1.66392299
   2.72588996  0.00000000  1.66392299
  -0.16063743  3.79437318  0.26306598
   3.58097414  1.26479106  0.26306598
  -1.01572160  2.52958212  1.66392299
   0.85508418  1.26479106 -1.40085701
   2.56525254  3.79437318 -4.20257103

 k-point   1 :   0.0000 0.0000 0.0000  plane waves:    5661
 k-point   2 :   0.1429 0.0000 0.0000  plane waves:    5645
 k-point   3 :   0.2857 0.0000 0.0000  plane waves:    5640
 k-point   4 :   0.4286 0.0000 0.0000  plane waves:    5651
 k-point   5 :   0.1429 0.1429 0.0000  plane waves:    5630
 k-point   6 :   0.2857 0.1429 0.0000  plane waves:    5629
 k-point   7 :   0.4286 0.1429 0.0000  plane waves:    5641
 k-point   8 :  -0.4286 0.1429 0.0000  plane waves:    5657
 k-point   9 :  -0.2857 0.1429 0.0000  plane waves:    5642
 k-point  10 :  -0.1429 0.1429 0.0000  plane waves:    5636
 k-point  11 :   0.2857 0.2857 0.0000  plane waves:    5634
 k-point  12 :   0.4286 0.2857 0.0000  plane waves:    5638
 k-point  13 :  -0.4286 0.2857 0.0000  plane waves:    5657
 k-point  14 :  -0.2857 0.2857 0.0000  plane waves:    5642
 k-point  15 :   0.4286 0.4286 0.0000  plane waves:    5644
 k-point  16 :  -0.4286 0.4286 0.0000  plane waves:    5662
 k-point  17 :   0.0000 0.0000 0.1250  plane waves:    5648
 k-point  18 :   0.1429 0.0000 0.1250  plane waves:    5639
 k-point  19 :   0.2857-0.0000 0.1250  plane waves:    5648
 k-point  20 :   0.4286 0.0000 0.1250  plane waves:    5643
 k-point  21 :  -0.4286 0.0000 0.1250  plane waves:    5630
 k-point  22 :  -0.2857 0.0000 0.1250  plane waves:    5634
 k-point  23 :  -0.1429-0.0000 0.1250  plane waves:    5645
 k-point  24 :   0.1429 0.1429 0.1250  plane waves:    5633
 k-point  25 :   0.2857 0.1429 0.1250  plane waves:    5648
 k-point  26 :   0.4286 0.1429 0.1250  plane waves:    5649
 k-point  27 :  -0.4286 0.1429 0.1250  plane waves:    5635
 k-point  28 :  -0.2857 0.1429 0.1250  plane waves:    5633
 k-point  29 :  -0.1429 0.1429 0.1250  plane waves:    5644
 k-point  30 :   0.2857 0.2857 0.1250  plane waves:    5625
 k-point  31 :   0.4286 0.2857 0.1250  plane waves:    5641
 k-point  32 :  -0.4286 0.2857 0.1250  plane waves:    5650
 k-point  33 :  -0.2857 0.2857 0.1250  plane waves:    5642
 k-point  34 :  -0.1429 0.2857 0.1250  plane waves:    5641
 k-point  35 :   0.4286 0.4286 0.1250  plane waves:    5650
 k-point  36 :  -0.4286 0.4286 0.1250  plane waves:    5643
 k-point  37 :  -0.2857 0.4286 0.1250  plane waves:    5645
 k-point  38 :  -0.1429 0.4286 0.1250  plane waves:    5643
 k-point  39 :  -0.4286-0.4286 0.1250  plane waves:    5644
 k-point  40 :  -0.2857-0.4286 0.1250  plane waves:    5652
 k-point  41 :  -0.1429-0.4286 0.1250  plane waves:    5651
 k-point  42 :  -0.2857-0.2857 0.1250  plane waves:    5640
 k-point  43 :  -0.1429-0.2857 0.1250  plane waves:    5643
 k-point  44 :  -0.1429-0.1429 0.1250  plane waves:    5639
 k-point  45 :   0.0000 0.0000 0.2500  plane waves:    5648
 k-point  46 :   0.1429 0.0000 0.2500  plane waves:    5648
 k-point  47 :   0.2857 0.0000 0.2500  plane waves:    5635
 k-point  48 :   0.4286 0.0000 0.2500  plane waves:    5635
 k-point  49 :  -0.4286-0.0000 0.2500  plane waves:    5626
 k-point  50 :  -0.2857-0.0000 0.2500  plane waves:    5641
 k-point  51 :  -0.1429 0.0000 0.2500  plane waves:    5633
 k-point  52 :   0.1429 0.1429 0.2500  plane waves:    5654
 k-point  53 :   0.2857 0.1429 0.2500  plane waves:    5624
 k-point  54 :   0.4286 0.1429 0.2500  plane waves:    5639
 k-point  55 :  -0.4286 0.1429 0.2500  plane waves:    5645
 k-point  56 :  -0.2857 0.1429 0.2500  plane waves:    5644
 k-point  57 :  -0.1429 0.1429 0.2500  plane waves:    5648
 k-point  58 :   0.2857 0.2857 0.2500  plane waves:    5602
 k-point  59 :   0.4286 0.2857 0.2500  plane waves:    5638
 k-point  60 :  -0.4286 0.2857 0.2500  plane waves:    5649
[...]
 k-point 102 :   0.1429 0.0000 0.5000  plane waves:    5649
 k-point 103 :   0.2857-0.0000 0.5000  plane waves:    5648
 k-point 104 :   0.4286 0.0000 0.5000  plane waves:    5645
 k-point 105 :   0.1429 0.1429 0.5000  plane waves:    5638
 k-point 106 :   0.2857 0.1429 0.5000  plane waves:    5644
 k-point 107 :   0.4286 0.1429 0.5000  plane waves:    5642
 k-point 108 :  -0.4286 0.1429 0.5000  plane waves:    5645
 k-point 109 :  -0.2857 0.1429 0.5000  plane waves:    5643
 k-point 110 :  -0.1429 0.1429 0.5000  plane waves:    5632
 k-point 111 :   0.2857 0.2857 0.5000  plane waves:    5641
 k-point 112 :   0.4286 0.2857 0.5000  plane waves:    5643
 k-point 113 :  -0.4286 0.2857 0.5000  plane waves:    5637
 k-point 114 :  -0.2857 0.2857 0.5000  plane waves:    5632
 k-point 115 :   0.4286 0.4286 0.5000  plane waves:    5645
 k-point 116 :  -0.4286 0.4286 0.5000  plane waves:    5650

 maximum and minimum number of plane-waves per node :      2842     2798

 maximum number of plane-waves:      5674
 maximum index in each direction:
   IXMAX=   12   IYMAX=   12   IZMAX=   12
   IXMIN=  -12   IYMIN=  -12   IZMIN=  -12

 parallel 3D FFT for wavefunctions:
    minimum data exchange during FFTs selected (reduces bandwidth)
 parallel 3D FFT for charge:
    minimum data exchange during FFTs selected (reduces bandwidth)

 Broyden mixing: mesh for mixing (old mesh)
   NGX = 25   NGY = 25   NGZ = 25
  (NGX  =100   NGY  =100   NGZ  =100)
  gives a total of  15625 points

 initial charge density was supplied:
 charge density of overlapping atoms calculated
 number of electron      76.0000000 magnetization
 keeping initial charge density in first step

 Maximum index for augmentation-charges        22358 (set IRDMAX)

 First call to EWALD:  gamma=   0.321
 Maximum number of real-space cells 3x 3x 3
 Maximum number of reciprocal cells 3x 3x 3

--------------------------------------- Iteration      1(   1)  ---------------------------------------

 eigenvalue-minimisations  : 12312
 total energy-change (2. order) : 0.6694667E+03  (-0.4976887E+04)
 number of electron      76.0000000 magnetization
 augmentation part       76.0000000 magnetization

 Free energy of the ion-electron system (eV)
  alpha Z        PSCENC =       285.49818234
  Ewald energy   TEWEN  =     -4903.78226797
  -Hartree energ DENC   =     -2765.25657115
  -exchange      EXHF   =         0.00000000
  -V(xc)+E(xc)   XCENC  =       325.03003587
  PAW double counting   =      6278.15209018    -6244.81064237
  entropy T*S    EENTRO =        -0.00049733
  eigenvalues    EBANDS =      -245.30526053
  atomic energy  EATOM  =      7939.94160518
  free energy    TOTEN  =       669.46667422 eV

  energy without entropy =      669.46717155  energy(sigma->0) =      669.46692288

[...]

 eigenvalue-minimisations  : 12552
 total energy-change (2. order) :-0.7940438E+03  (-0.7715885E+03)
 number of electron      76.0000000 magnetization
 augmentation part       76.0000000 magnetization

[...]

 eigenvalue-minimisations  :     0
 total energy-change (2. order) :-0.3927198E-08  (-0.6443175E-09)
 number of electron      76.0000000 magnetization
 augmentation part        9.2846359 magnetization

[...]

--------------------------------------- Iteration      1(  32)  ---------------------------------------

 eigenvalue-minimisations  :     0
 total energy-change (2. order) : 0.3483365E-09  (-0.8549213E-09)
 number of electron      76.0000000 magnetization
 augmentation part        9.2846332 magnetization

 Free energy of the ion-electron system (eV)
  alpha Z        PSCENC =       285.49818234
  Ewald energy   TEWEN  =     -4903.78226797
  -Hartree energ DENC   =     -2743.65766447
  -exchange      EXHF   =         0.00000000
  -V(xc)+E(xc)   XCENC  =       333.47122165
  PAW double counting   =      9572.47049632    -9548.43691007
  entropy T*S    EENTRO =        -0.00130628
  eigenvalues    EBANDS =     -1063.78246241
  atomic energy  EATOM  =      7939.94160518
  free energy    TOTEN  =      -128.27910573 eV

  energy without entropy =     -128.27779945  energy(sigma->0) =     -128.27845259

  average scaling for gradient   1.0555

 average (electrostatic) potential at core
  the test charge radii are     0.7672  1.0818  0.9892
  (the norm of the test charge is              1.0000)
       1 -28.3124       2 -28.3124       3 -28.3121       4 -28.3121       5 -79.9419
       6 -80.5872       7 -80.5872       8 -79.9419       9 -86.9820      10 -86.9820

 E-fermi :   6.4023     XC(G=0): -11.4105     alpha+bet :-12.8558

 Fermi energy:         6.4023204841

 k-point     1 :       0.0000    0.0000    0.0000
  band No.  band energies     occupation
      1     -57.4741      2.00000
      2     -56.8718      2.00000
      3     -56.3191      2.00000
      4     -55.5645      2.00000
      5     -34.2317      2.00000
      6     -30.9533      2.00000
      7     -30.5296      2.00000
      8     -30.4212      2.00000
      9     -30.4211      2.00000
     10     -30.0406      2.00000
     11     -30.0405      2.00000
     12     -29.5491      2.00000
     13     -29.5489      2.00000
     14     -29.1036      2.00000
     15     -29.1034      2.00000
     16     -26.5129      2.00000
     17      -3.8660      2.00000
     18      -0.6367      2.00000
     19      -0.3967      2.00000
     20       0.4674      2.00000
     21       0.4676      2.00000
     22       0.8092      2.00000
     23       1.1583      2.00000
     24       1.1585      2.00000
     25       1.8060      2.00000
     26       2.0298      2.00000
     27       2.2435      2.00000
     28       2.2437      2.00000
     29       2.5348      2.00000
     30       3.1273      2.00000
     31       4.0292      2.00000
     32       4.0293      2.00000
     33       4.4687      2.00000
     34       4.6796      2.00000
     35       6.0139      2.00000
     36       6.1144      2.00000
     37       6.1145      2.00000
     38       6.4048      0.85680
     39       6.6491      0.00000
     40       6.9592      0.00000
     41       6.9960      0.00000
     42       6.9961      0.00000
     43       7.8811      0.00000
     44       7.9654      0.00000
     45       8.2931      0.00000
     46       8.3220      0.00000
     47       8.3237      0.00000
     48       8.3595      0.00000

[...]

 k-point   116 :      -0.4286    0.4286    0.5000
  band No.  band energies     occupation
      1     -57.4740      2.00000
      2     -56.8720      2.00000
      3     -56.3190      2.00000
      4     -55.5646      2.00000
      5     -34.2308      2.00000
      6     -30.9537      2.00000
      7     -30.5306      2.00000
      8     -30.4253      2.00000
      9     -30.4249      2.00000
     10     -30.0372      2.00000
     11     -30.0372      2.00000
     12     -29.5482      2.00000
     13     -29.5481      2.00000
     14     -29.1035      2.00000
     15     -29.1033      2.00000
     16     -26.5127      2.00000
     17      -2.0367      2.00000
     18      -1.7768      2.00000
     19      -1.7474      2.00000
     20      -0.3108      2.00000
     21      -0.0019      2.00000
     22       0.1715      2.00000
     23       0.6546      2.00000
     24       0.6825      2.00000
     25       0.6875      2.00000
     26       2.5418      2.00000
     27       2.7487      2.00000
     28       3.8367      2.00000
     29       3.8658      2.00000
     30       3.8947      2.00000
     31       4.4870      2.00000
     32       4.6765      2.00000
     33       4.8453      2.00000
     34       5.6936      2.00000
     35       5.8917      2.00000
     36       6.2029      2.00000
     37       6.7560      0.00000
     38       6.8565      0.00000
     39       7.2194      0.00000
     40       7.4879      0.00000
     41       7.5149      0.00000
     42       7.5433      0.00000
     43       7.6154      0.00000
     44       7.6477      0.00000
     45       7.7728      0.00000
     46       7.7903      0.00000
     47       8.1045      0.00000
     48       9.0168      0.00000

 soft charge-density along one line, spin component           1
         0         1         2         3         4         5         6         7         8         9
 total charge-density along one line

------------------------ aborting loop because EDIFF is reached ----------------------------------------

  FREE ENERGIE OF THE ION-ELECTRON SYSTEM (eV)
  free  energy   TOTEN  =      -128.27910573 eV

  energy  without entropy=     -128.27779945  energy(sigma->0) =     -128.27845259

 writing wavefunctions