 vasp.6.2.0 18Jan21 (build Jan 05 2022 15:41:44) complex

 executed on             LinuxIFC date 2025.05.07  20:37:34

 INCAR:
   SYSTEM = routine with relax: pwdword
   ICHARG = 2
   NPAR = 6
   KPAR = 2
   NCORE = 2
   ADDGRID = T
   PREC = Acc
   ENCUT = 600
   METAGGA = R2SCAN
   LASPH = .TRUE.
   LMIXTAU = .FALSE.
   ALGO = A
   EDIFF = 1E-9
   NELM = 100
   NELMIN = 6
   IALGO = 38
   LREAL = F
   NSW = 0
   ISIF = -1
   ISMEAR = 0
   SIGMA = 0.02
   SYMPREC = 1E-4

 POTCAR:    PAW_PBE B 06Sep2000
 POTCAR:    PAW_PBE Mo_sv 02Feb2006
 POTCAR:    PAW_PBE Si 05Jan2001
|           W    W    AA    RRRRR   N    N  II  N    N   GGGG   !!!           |
|           W    W   A  A   R    R  NN   N  II  NN   N  G    G  !!!           |
|           W    W  A    A  R    R  N N  N  II  N N  N  G       !!!           |
|           W WW W  AAAAAA  RRRRR   N  N N  II  N  N N  G  GGG   !            |
|           WW  WW  A    A  R   R   N   NN  II  N   NN  G    G                |
|           W    W  A    A  R    R  N    N  II  N    N   GGGG   !!!           |
|     For optimal performance we recommend to set                             |
|       NCORE = 2 up to number-of-cores-per-socket                            |
|     This setting can greatly improve the performance of VASP for DFT.       |
|     The default, NCORE=1 might be grossly inefficient on modern             |
|     multi-core architectures or massively parallel machines. Do your        |
|     Unfortunately you need to use the default for GW and RPA                |
|     calculations (for HF NCORE is supported but not extensively tested      |
|     yet).                                                                   |

 POTCAR:    PAW_PBE B 06Sep2000
   VRHFIN =B: s2p1

   TITEL  = PAW_PBE B 06Sep2000
   POMASS =   10.811; ZVAL   =    3.000    mass and valenz
   ENMAX  =  318.614; ENMIN  =  238.960 eV

 POTCAR:    PAW_PBE Mo_sv 02Feb2006
   VRHFIN =Mo: 4p5s4d

   TITEL  = PAW_PBE Mo_sv 02Feb2006
   POMASS =   95.940; ZVAL   =   14.000    mass and valenz
   ENMAX  =  242.676; ENMIN  =  182.007 eV

 POTCAR:    PAW_PBE Si 05Jan2001
   VRHFIN =Si: s2p2

   TITEL  = PAW_PBE Si 05Jan2001
   POMASS =   28.085; ZVAL   =    4.000    mass and valenz
   ENMAX  =  245.345; ENMIN  =  184.009 eV

  PAW_PBE B 06Sep2000                   :
  PAW_PBE Mo_sv 02Feb2006               :
  PAW_PBE Si 05Jan2001                  :

 POSCAR: EA224
  positions in direct lattice

 METAGGA = R2SCA    LMAXTAU =  6    LMIXTAU =  F

 ion  position               nearest neighbor table
   1  0.500  0.000  0.000-  12 1.43  14 1.43   7 2.45   9 2.45  16 2.52  18 2.52
   2  0.500  0.500  0.500-  10 1.43  13 1.43   7 2.45   9 2.45  17 2.52  15 2.52
   3  0.000  0.000  0.500-   5 1.43  11 1.43   9 2.45   7 2.45  17 2.52  15 2.52
   4  0.000  0.500  0.000-   6 1.43   8 1.43   7 2.45   9 2.45  16 2.52  18 2.52
   5  0.788  0.010  0.500-   3 1.43  18 2.43  16 2.43  17 2.49  12 2.68   8 2.68  13 2.72  10 2.76
                             7 2.84   9 2.84  11 2.87  15 3.25
   6  0.010  0.510  0.222-   4 1.43  15 2.43  17 2.43  16 2.49  10 2.68  11 2.68  14 2.72  12 2.76
                             9 2.84   7 2.84   8 2.87  18 3.25
   7  0.750  0.750  0.000-   1 2.45   4 2.45   3 2.45   2 2.45   8 2.84   6 2.84  14 2.84  12 2.84
                             5 2.84  10 2.84  11 2.84  13 2.84
   8  0.990  0.490  0.778-   4 1.43  15 2.43  17 2.43  18 2.49  13 2.68   5 2.68  12 2.72  14 2.76
                             7 2.84   9 2.84   6 2.87  16 3.25
   9  0.250  0.250  0.000-   1 2.45   4 2.45   2 2.45   3 2.45   6 2.84   8 2.84  14 2.84  12 2.84
                            13 2.84  11 2.84   5 2.84  10 2.84
  10  0.490  0.712  0.500-   2 1.43  16 2.43  18 2.43  17 2.49  14 2.68   6 2.68  11 2.72   5 2.76
                             7 2.84   9 2.84  13 2.87  15 3.25
  11  0.212  0.990  0.500-   3 1.43  16 2.43  18 2.43  15 2.49  14 2.68   6 2.68  10 2.72  13 2.76
                             9 2.84   7 2.84   5 2.87  17 3.25
  12  0.712  0.212  0.222-   1 1.43  15 2.43  17 2.43  16 2.49  13 2.68   5 2.68   8 2.72   6 2.76
                             7 2.84   9 2.84  14 2.87  18 3.25
  13  0.510  0.288  0.500-   2 1.43  18 2.43  16 2.43  15 2.49  12 2.68   8 2.68   5 2.72  11 2.76
                             9 2.84   7 2.84  10 2.87  17 3.25
  14  0.288  0.788  0.778-   1 1.43  15 2.43  17 2.43  18 2.49  10 2.68  11 2.68   6 2.72   8 2.76
                             7 2.84   9 2.84  12 2.87  16 3.25
  15  0.149  0.351  0.500-   6 2.43   8 2.43  12 2.43  14 2.43  13 2.49  11 2.49   2 2.52   3 2.52
                            17 2.92  10 3.25   5 3.25
  16  0.649  0.149  0.799-  10 2.43  11 2.43   5 2.43  13 2.43  12 2.49   6 2.49   1 2.52   4 2.52
                            18 2.92  14 3.25   8 3.25
  17  0.851  0.649  0.500-   6 2.43   8 2.43  12 2.43  14 2.43   5 2.49  10 2.49   2 2.52   3 2.52
                            15 2.92  11 3.25  13 3.25
  18  0.351  0.851  0.201-  13 2.43   5 2.43  11 2.43  10 2.43  14 2.49   8 2.49   1 2.52   4 2.52
                            16 2.92  12 3.25   6 3.25

  LATTYP: Found a body centered tetragonal cell.
 ALAT       =     6.9198960490
 C/A-ratio  =     1.3378987462

  Lattice vectors:

 A1 = (   5.9371926907,   0.0000000000,  -3.1812270795)
 A2 = (  -2.1279877383,   5.5427362586,  -3.1812270795)
 A3 = (   0.0000000000,   0.0000000000,   6.7357600000)

Analysis of symmetry for initial positions (statically):
 Subroutine PRICEL returns:
 Original cell was already a primitive cell.

 Routine SETGRP: Setting up the symmetry group for a
 body centered tetragonal supercell.

 Subroutine GETGRP returns: Found 16 space group operations
 (whereof  8 operations were pure point group operations)
 out of a pool of 16 trial point group operations.

The static configuration has the point symmetry C_4h.
 The point group associated with its full space group is D_4h.

Analysis of symmetry for dynamics (positions and initial velocities):
 Subroutine PRICEL returns:
 Original cell was already a primitive cell.

 Routine SETGRP: Setting up the symmetry group for a
 body centered tetragonal supercell.

 Subroutine GETGRP returns: Found 16 space group operations
 (whereof  8 operations were pure point group operations)
 out of a pool of 16 trial point group operations.

The dynamic configuration has the point symmetry C_4h.
 The point group associated with its full space group is D_4h.

 Subroutine INISYM returns: Found 16 space group operations
 (whereof  8 operations are pure point group operations),
 and found     1 'primitive' translations

                                     Primitive cell

  volume of cell :     221.6624

  direct lattice vectors                    reciprocal lattice vectors
     5.937192691  0.000000000 -3.181227079     0.168429770  0.064664178  0.000000000
    -2.127987738  5.542736259 -3.181227079     0.000000000  0.180416306  0.000000000
     0.000000000  0.000000000  6.735760000     0.079547571  0.115748880  0.148461347

  length of vectors
     6.735760000  6.735760000  6.735760000     0.180416306  0.180416306  0.204368272

  position of ions in fractional coordinates (direct lattice)
     0.500000000  0.000000000  0.000000000
     0.500000000  0.500000000  0.500000000
     0.000000000  0.000000000  0.500000000
     1.000000000  0.500000000  0.000000000
     0.788030000  0.010160000  0.500000000
     0.010160000  0.510160000  0.222130000
     0.750000000  0.750000000  0.000000000
     0.989840000  0.489840000  0.777870000
     0.250000000  0.250000000  0.000000000
     0.489840000  0.711970000  0.500000000
     0.211970000  0.989840000  0.500000000
     0.711970000  0.211970000  0.222130000
     0.510160000  0.288030000  0.500000000
     0.288030000  0.788030000  0.777870000
     0.149430000  0.350570000  0.500000000
     0.649430000  0.149430000  0.798870000
     0.850570000  0.649430000  0.500000000
     0.350570000  0.850570000  0.201130000

  ion indices of the primitive-cell ions
   primitive index   ion index
                 1           1
                 2           2
                 3           3
                 4           4
                 5           5
                 6           6
                 7           7
                 8           8
                 9           9
                10          10
                11          11
                12          12
                13          13
                14          14
                15          15
                16          16
                17          17
                18          18

 KPOINTS: EA

Automatic generation of k-mesh.
 Grid dimensions read from file:
 generate k-points for:    7    7    7

 Generating k-lattice:

  Cartesian coordinates                     Fractional coordinates (reciprocal lattice)
     0.024061396  0.009237740  0.000000000     0.142857143 -0.000000000  0.000000000
     0.000000000  0.025773758  0.000000000     0.000000000  0.142857143  0.000000000
     0.011363939  0.016535554  0.021208764     0.000000000  0.000000000  0.142857143

  Length of vectors
     0.025773758  0.025773758  0.029195467

  Shift w.r.t. Gamma in fractional coordinates (k-lattice)
     0.000000000  0.000000000  0.000000000

 Subroutine IBZKPT returns following result:

 Found     40 irreducible k-points:

 Following reciprocal coordinates:
            Coordinates               Weight
  0.000000  0.000000  0.000000      1.000000
  0.142857  0.000000  0.000000      8.000000
  0.285714  0.000000  0.000000      8.000000
  0.428571  0.000000  0.000000      8.000000
  0.142857  0.142857  0.000000      8.000000
  0.285714  0.142857  0.000000     16.000000
  0.428571  0.142857  0.000000     16.000000
 -0.428571  0.142857  0.000000     16.000000
 -0.285714  0.142857  0.000000     16.000000
 -0.142857  0.142857  0.000000      4.000000
  0.285714  0.285714  0.000000      8.000000
  0.428571  0.285714  0.000000     16.000000
 -0.428571  0.285714  0.000000     16.000000
 -0.285714  0.285714  0.000000      4.000000
  0.428571  0.428571  0.000000      8.000000
 -0.428571  0.428571  0.000000      4.000000
  0.142857  0.142857  0.142857      8.000000
  0.285714  0.142857  0.142857     16.000000
 -0.142857  0.142857  0.142857      4.000000
  0.285714  0.285714  0.142857      8.000000
  0.428571  0.285714  0.142857      8.000000
 -0.285714  0.285714  0.142857      8.000000
 -0.142857  0.285714  0.142857      8.000000
 -0.428571  0.428571  0.142857      8.000000
 -0.285714  0.428571  0.142857     16.000000
 -0.142857  0.428571  0.142857      8.000000
 -0.428571 -0.428571  0.142857      8.000000
 -0.285714 -0.428571  0.142857     16.000000
 -0.142857 -0.428571  0.142857      8.000000
 -0.285714 -0.285714  0.142857      8.000000
 -0.142857 -0.285714  0.142857      8.000000
 -0.142857 -0.142857  0.142857      2.000000
 -0.285714  0.285714  0.285714      4.000000
 -0.428571  0.428571  0.285714      8.000000
 -0.285714  0.428571  0.285714      8.000000
 -0.428571 -0.428571  0.285714      8.000000
 -0.285714 -0.428571  0.285714      8.000000
 -0.285714 -0.285714  0.285714      2.000000
 -0.428571  0.428571  0.428571      4.000000
[...]
   0.03542533  0.05154705  0.02120876       0.023
   0.05948673  0.06078479  0.02120876       0.047
  -0.01269746  0.03307157  0.02120876       0.012
   0.05948673  0.08655855  0.02120876       0.023
   0.08354813  0.09579629  0.02120876       0.023
  -0.03675885  0.04960759  0.02120876       0.023
  -0.01269746  0.05884533  0.02120876       0.023
  -0.06082025  0.06614361  0.02120876       0.023
  -0.03675885  0.07538135  0.02120876       0.047
  -0.01269746  0.08461909  0.02120876       0.023
  -0.06082025 -0.08849894  0.02120876       0.023
  -0.03675885 -0.07926120  0.02120876       0.047
  -0.01269746 -0.07002346  0.02120876       0.023
  -0.03675885 -0.05348744  0.02120876       0.023
  -0.01269746 -0.04424970  0.02120876       0.023
  -0.01269746 -0.01847594  0.02120876       0.006
  -0.02539491  0.06614314  0.04241753       0.012
  -0.04945631  0.08267916  0.04241753       0.023
  -0.02539491  0.09191690  0.04241753       0.023
  -0.04945631 -0.07196338  0.04241753       0.023
  -0.02539491 -0.06272565  0.04241753       0.023
  -0.02539491 -0.03695189  0.04241753       0.006
  -0.03809237  0.09921472  0.06362629       0.012
  -0.03809237 -0.05542783  0.06362629       0.006

 k-points in reciprocal lattice and weights: EA
   0.00000000  0.00000000  0.00000000       0.003
   0.14285714  0.00000000  0.00000000       0.023
   0.28571429  0.00000000  0.00000000       0.023
   0.42857143  0.00000000  0.00000000       0.023
   0.14285714  0.14285714  0.00000000       0.023
   0.28571429  0.14285714  0.00000000       0.047
   0.42857143  0.14285714  0.00000000       0.047
  -0.42857143  0.14285714  0.00000000       0.047
  -0.28571429  0.14285714  0.00000000       0.047
  -0.14285714  0.14285714  0.00000000       0.012
   0.28571429  0.28571429  0.00000000       0.023
   0.42857143  0.28571429  0.00000000       0.047
  -0.42857143  0.28571429  0.00000000       0.047
  -0.28571429  0.28571429  0.00000000       0.012
   0.42857143  0.42857143  0.00000000       0.023
  -0.42857143  0.42857143  0.00000000       0.012
   0.14285714  0.14285714  0.14285714       0.023
   0.28571429  0.14285714  0.14285714       0.047
  -0.14285714  0.14285714  0.14285714       0.012
   0.28571429  0.28571429  0.14285714       0.023
   0.42857143  0.28571429  0.14285714       0.023
  -0.28571429  0.28571429  0.14285714       0.023
  -0.14285714  0.28571429  0.14285714       0.023
  -0.42857143  0.42857143  0.14285714       0.023
  -0.28571429  0.42857143  0.14285714       0.047
  -0.14285714  0.42857143  0.14285714       0.023
  -0.42857143 -0.42857143  0.14285714       0.023
  -0.28571429 -0.42857143  0.14285714       0.047
  -0.14285714 -0.42857143  0.14285714       0.023
  -0.28571429 -0.28571429  0.14285714       0.023
  -0.14285714 -0.28571429  0.14285714       0.023
  -0.14285714 -0.14285714  0.14285714       0.006
  -0.28571429  0.28571429  0.28571429       0.012
  -0.42857143  0.42857143  0.28571429       0.023
  -0.28571429  0.42857143  0.28571429       0.023
  -0.42857143 -0.42857143  0.28571429       0.023
  -0.28571429 -0.42857143  0.28571429       0.023
  -0.28571429 -0.28571429  0.28571429       0.006
  -0.42857143  0.42857143  0.42857143       0.012
  -0.42857143 -0.42857143  0.42857143       0.006

 position of ions in fractional coordinates (direct lattice)
   0.50000000  0.00000000  0.00000000
   0.50000000  0.50000000  0.50000000
   0.00000000  0.00000000  0.50000000
   0.00000000  0.50000000  0.00000000
   0.78803000  0.01016000  0.50000000
   0.01016000  0.51016000  0.22213000
   0.75000000  0.75000000  0.00000000
   0.98984000  0.48984000  0.77787000
   0.25000000  0.25000000  0.00000000
   0.48984000  0.71197000  0.50000000
   0.21197000  0.98984000  0.50000000
   0.71197000  0.21197000  0.22213000
   0.51016000  0.28803000  0.50000000
   0.28803000  0.78803000  0.77787000
   0.14943000  0.35057000  0.50000000
   0.64943000  0.14943000  0.79887000
   0.85057000  0.64943000  0.50000000
   0.35057000  0.85057000  0.20113000

 position of ions in cartesian coordinates  (Angst):
   2.96859635  0.00000000 -1.59061354
   1.90460248  2.77136813  0.18665292
   0.00000000  0.00000000  3.36788000
  -1.06399387  2.77136813 -1.59061354
   4.65706560  0.05631420  0.82865636
  -1.02529235  2.82768233 -0.15904171
   2.85690371  4.15705219 -4.77184062
   4.83449730  2.71505393  0.53234755
   0.95230124  1.38568406 -1.59061354
   1.39321104  3.94626193 -0.45535052
  -0.84786065  5.48642206 -0.45535052
   3.77603352  1.17489380 -1.44304858
   2.41599391  1.59647432  0.82865636
   0.03317143  4.36784245  1.81635442
   0.14118604  1.94311705  1.77726646
   3.53780584  0.82825108  2.83964153
   3.66801891  3.59961921 -1.40396062
   0.27139911  4.71448518 -2.46633569

 k-point   1 :   0.0000 0.0000 0.0000  plane waves:    7455
 k-point   2 :   0.1429 0.0000 0.0000  plane waves:    7412
 k-point   3 :   0.2857 0.0000 0.0000  plane waves:    7400
 k-point   4 :   0.4286 0.0000 0.0000  plane waves:    7392
 k-point   5 :   0.1429 0.1429 0.0000  plane waves:    7397
 k-point   6 :   0.2857 0.1429 0.0000  plane waves:    7394
 k-point   7 :   0.4286 0.1429 0.0000  plane waves:    7382
 k-point   8 :  -0.4286 0.1429 0.0000  plane waves:    7403
 k-point   9 :  -0.2857 0.1429 0.0000  plane waves:    7407
 k-point  10 :  -0.1429 0.1429 0.0000  plane waves:    7411
 k-point  11 :   0.2857 0.2857 0.0000  plane waves:    7395
 k-point  12 :   0.4286 0.2857 0.0000  plane waves:    7407
 k-point  13 :  -0.4286 0.2857 0.0000  plane waves:    7404
 k-point  14 :  -0.2857 0.2857 0.0000  plane waves:    7424
 k-point  15 :   0.4286 0.4286 0.0000  plane waves:    7416
 k-point  16 :  -0.4286 0.4286 0.0000  plane waves:    7410
 k-point  17 :   0.1429 0.1429 0.1429  plane waves:    7392
 k-point  18 :   0.2857 0.1429 0.1429  plane waves:    7400
 k-point  19 :  -0.1429 0.1429 0.1429  plane waves:    7432
 k-point  20 :   0.2857 0.2857 0.1429  plane waves:    7397
 k-point  21 :   0.4286 0.2857 0.1429  plane waves:    7412
 k-point  22 :  -0.2857 0.2857 0.1429  plane waves:    7414
 k-point  23 :  -0.1429 0.2857 0.1429  plane waves:    7411
 k-point  24 :  -0.4286 0.4286 0.1429  plane waves:    7389
 k-point  25 :  -0.2857 0.4286 0.1429  plane waves:    7392
 k-point  26 :  -0.1429 0.4286 0.1429  plane waves:    7383
 k-point  27 :  -0.4286-0.4286 0.1429  plane waves:    7392
 k-point  28 :  -0.2857-0.4286 0.1429  plane waves:    7389
 k-point  29 :  -0.1429-0.4286 0.1429  plane waves:    7386
 k-point  30 :  -0.2857-0.2857 0.1429  plane waves:    7396
 k-point  31 :  -0.1429-0.2857 0.1429  plane waves:    7407
 k-point  32 :  -0.1429-0.1429 0.1429  plane waves:    7399
 k-point  33 :  -0.2857 0.2857 0.2857  plane waves:    7404
 k-point  34 :  -0.4286 0.4286 0.2857  plane waves:    7378
 k-point  35 :  -0.2857 0.4286 0.2857  plane waves:    7384
 k-point  36 :  -0.4286-0.4286 0.2857  plane waves:    7384
 k-point  37 :  -0.2857-0.4286 0.2857  plane waves:    7374
 k-point  38 :  -0.2857-0.2857 0.2857  plane waves:    7402
 k-point  39 :  -0.4286 0.4286 0.4286  plane waves:    7366
 k-point  40 :  -0.4286-0.4286 0.4286  plane waves:    7342

 maximum and minimum number of plane-waves per node :      3728     3669

 maximum number of plane-waves:      7455
 maximum index in each direction:
   IXMAX=   13   IYMAX=   13   IZMAX=   13
   IXMIN=  -13   IYMIN=  -13   IZMIN=  -13

 parallel 3D FFT for wavefunctions:
    minimum data exchange during FFTs selected (reduces bandwidth)
 parallel 3D FFT for charge:
    minimum data exchange during FFTs selected (reduces bandwidth)

 Broyden mixing: mesh for mixing (old mesh)
   NGX = 27   NGY = 27   NGZ = 27
  (NGX  =108   NGY  =108   NGZ  =108)
  gives a total of  19683 points

 initial charge density was supplied:
 charge density of overlapping atoms calculated
 number of electron     168.0000000 magnetization
 keeping initial charge density in first step

 Maximum index for augmentation-charges        20214 (set IRDMAX)

 First call to EWALD:  gamma=   0.293
 Maximum number of real-space cells 3x 3x 3
 Maximum number of reciprocal cells 3x 3x 3

--------------------------------------- Iteration      1(   1)  ---------------------------------------

 eigenvalue-minimisations  :  8544
 total energy-change (2. order) : 0.2061019E+04  (-0.1168729E+05)
 number of electron     168.0000000 magnetization
 augmentation part      168.0000000 magnetization

 Free energy of the ion-electron system (eV)
  alpha Z        PSCENC =      1092.69489249
  Ewald energy   TEWEN  =    -15370.22321459
  -Hartree energ DENC   =     -4433.23290718
  -exchange      EXHF   =         0.00000000
  -V(xc)+E(xc)   XCENC  =       800.32636947
  PAW double counting   =     15361.63353705   -15286.57816344
  entropy T*S    EENTRO =        -0.00106006
  eigenvalues    EBANDS =       576.62994664
  atomic energy  EATOM  =     19319.76984889
  free energy    TOTEN  =      2061.01924927 eV

  energy without entropy =     2061.02030933  energy(sigma->0) =     2061.01977930

[...]

 eigenvalue-minimisations  :  8880
 total energy-change (2. order) :-0.2293949E+04  (-0.2223575E+04)
 number of electron     168.0000000 magnetization
 augmentation part      168.0000000 magnetization

[...]

 eigenvalue-minimisations  :     0
 total energy-change (2. order) : 0.6002665E-09  (-0.3057148E-08)
 number of electron     168.0000003 magnetization
 augmentation part       24.3856105 magnetization

[...]

--------------------------------------- Iteration      1(  36)  ---------------------------------------

 eigenvalue-minimisations  :     0
 total energy-change (2. order) :-0.1018634E-09  (-0.4298851E-09)
 number of electron     168.0000003 magnetization
 augmentation part       24.3856108 magnetization

 Free energy of the ion-electron system (eV)
  alpha Z        PSCENC =      1092.69489249
  Ewald energy   TEWEN  =    -15370.22321459
  -Hartree energ DENC   =     -4393.09010596
  -exchange      EXHF   =         0.00000000
  -V(xc)+E(xc)   XCENC  =       825.47397749
  PAW double counting   =     28431.71841713   -28375.66562831
  entropy T*S    EENTRO =        -0.00129440
  eigenvalues    EBANDS =     -1782.40267821
  atomic energy  EATOM  =     19319.76984889
  free energy    TOTEN  =      -251.72578548 eV

  energy without entropy =     -251.72449107  energy(sigma->0) =     -251.72513827

  average scaling for gradient   0.8486

 average (electrostatic) potential at core
  the test charge radii are     0.7672  1.0818  0.9892
  (the norm of the test charge is              1.0000)
       1 -24.8502       2 -24.8502       3 -24.8502       4 -24.8499       5 -73.7357
       6 -73.7361       7 -74.9519       8 -73.7361       9 -74.9519      10 -73.7357
      11 -73.7357      12 -73.7365      13 -73.7357      14 -73.7365      15 -80.4988
      16 -80.4983      17 -80.4988      18 -80.4983

 E-fermi :  11.8285     XC(G=0): -13.8244     alpha+bet :-20.4264

 Fermi energy:        11.8285266573

 k-point     1 :       0.0000    0.0000    0.0000
  band No.  band energies     occupation
      1     -50.9858      2.00000
      2     -50.9710      2.00000
      3     -50.4545      2.00000
      4     -50.4372      2.00000
      5     -50.3672      2.00000
      6     -50.3666      2.00000
      7     -50.2994      2.00000
      8     -50.2886      2.00000
      9     -50.2572      2.00000
     10     -50.2566      2.00000
     11     -25.4638      2.00000
     12     -25.3727      2.00000
     13     -25.3689      2.00000
     14     -25.3607      2.00000
     15     -25.2678      2.00000
     16     -25.2673      2.00000
     17     -24.9616      2.00000
     18     -24.9611      2.00000
     19     -24.5540      2.00000
     20     -24.5538      2.00000
     21     -24.5080      2.00000
     22     -24.4557      2.00000
     23     -24.2975      2.00000
     24     -24.2346      2.00000
     25     -24.2344      2.00000
     26     -24.0658      2.00000
     27     -23.7918      2.00000
     28     -23.7916      2.00000
     29     -23.7527      2.00000
     30     -23.6692      2.00000
     31     -23.6263      2.00000
     32     -23.6260      2.00000
     33     -23.3761      2.00000
     34     -23.3378      2.00000
     35     -23.3020      2.00000
     36     -23.3018      2.00000
     37     -23.2817      2.00000
     38     -23.1349      2.00000
     39     -23.1066      2.00000
     40     -23.1065      2.00000
     41       0.3179      2.00000
     42       2.3203      2.00000
     43       2.3205      2.00000
     44       2.4130      2.00000
     45       3.7647      2.00000
     46       4.2904      2.00000
     47       4.7558      2.00000
     48       4.7876      2.00000
     49       4.9212      2.00000
     50       5.3424      2.00000
     51       5.4357      2.00000
     52       5.4358      2.00000
     53       5.5435      2.00000
     54       5.5436      2.00000
     55       6.7663      2.00000
     56       6.7665      2.00000
     57       7.3555      2.00000
     58       7.4260      2.00000
     59       7.8501      2.00000
     60       8.3083      2.00000
[...]
     88      12.4465      0.00000
     89      12.5429      0.00000
     90      12.5431      0.00000
     91      13.0531      0.00000
     92      13.4800      0.00000
     93      13.5219      0.00000
     94      13.5314      0.00000
     95      13.6570      0.00000
     96      13.6572      0.00000
     97      13.7257      0.00000
     98      14.2900      0.00000
     99      14.8569      0.00000
    100      15.5134      0.00000
    101      15.6730      0.00000
    102      15.7366      0.00000

[...]

 k-point    40 :      -0.4286   -0.4286    0.4286
  band No.  band energies     occupation
      1     -50.9845      2.00000
      2     -50.9711      2.00000
      3     -50.5037      2.00000
      4     -50.3917      2.00000
      5     -50.3470      2.00000
      6     -50.3252      2.00000
      7     -50.3247      2.00000
      8     -50.2996      2.00000
      9     -50.2990      2.00000
     10     -50.2375      2.00000
     11     -25.6090      2.00000
     12     -25.5701      2.00000
     13     -25.2250      2.00000
     14     -25.1886      2.00000
     15     -25.1881      2.00000
     16     -25.1579      2.00000
     17     -25.0073      2.00000
     18     -25.0069      2.00000
     19     -24.5396      2.00000
     20     -24.5394      2.00000
     21     -24.5029      2.00000
     22     -24.4622      2.00000
     23     -24.3924      2.00000
     24     -24.2728      2.00000
     25     -24.2726      2.00000
     26     -23.9809      2.00000
     27     -23.8088      2.00000
     28     -23.7612      2.00000
     29     -23.7612      2.00000
     30     -23.6336      2.00000
     31     -23.6336      2.00000
     32     -23.6158      2.00000
     33     -23.4368      2.00000
     34     -23.3936      2.00000
     35     -23.2997      2.00000
     36     -23.2996      2.00000
     37     -23.2241      2.00000
     38     -23.1489      2.00000
     39     -23.1489      2.00000
     40     -23.0515      2.00000
     41       1.3244      2.00000
     42       1.6001      2.00000
     43       2.6649      2.00000
     44       2.6650      2.00000
     45       3.2835      2.00000
     46       4.4571      2.00000
     47       4.4571      2.00000
     48       4.5485      2.00000
     49       4.5544      2.00000
     50       4.5989      2.00000
     51       4.9495      2.00000
     52       5.3075      2.00000
     53       6.0910      2.00000
     54       6.0911      2.00000
     55       6.4259      2.00000
     56       6.4261      2.00000
     57       6.4362      2.00000
     58       6.8962      2.00000
     59       6.9836      2.00000
     60       7.6596      2.00000
[...]
     88      12.4198      0.00000
     89      12.5094      0.00000
     90      12.6404      0.00000
     91      13.0123      0.00000
     92      13.3530      0.00000
     93      13.4131      0.00000
     94      13.4133      0.00000
     95      13.6670      0.00000
     96      13.8862      0.00000
     97      14.0602      0.00000
     98      14.5341      0.00000
     99      14.6088      0.00000
    100      14.6830      0.00000
    101      15.1413      0.00000
    102      15.2200      0.00000

 soft charge-density along one line, spin component           1
         0         1         2         3         4         5         6         7         8         9
 total charge-density along one line

------------------------ aborting loop because EDIFF is reached ----------------------------------------

  FREE ENERGIE OF THE ION-ELECTRON SYSTEM (eV)
  free  energy   TOTEN  =      -251.72578548 eV

  energy  without entropy=     -251.72449107  energy(sigma->0) =     -251.72513827

 writing wavefunctions